17
Lattice="5.726857820829849 0.0 0.0 2.8634289104149246 4.95960435670024 0.0 0.0 0.0 33.11393974525017" Properties=species:S:1:pos:R:3:move_mask:L:1:tags:I:1:momenta:R:3:forces:R:3 coordinates=unwrapped run_id=al-reference step_id=-1 evaluation_id=0 physical_time_fs=0.0 route=dft force_source=driving forces_available=T energy=-9134.775595897463 pbc="T T F"
Al       0.00000000       0.00000000      12.00000000  F        4       0.00000000       0.00000000       0.00000000       0.00000000       0.00000000       0.00000000
Al       2.86342891       0.00000000      12.00000000  F        4       0.00000000       0.00000000       0.00000000       0.00000000       0.00000000       0.00000000
Al       1.43171446       2.47980218      12.00000000  F        4       0.00000000       0.00000000       0.00000000       0.00000000       0.00000000       0.00000000
Al       4.29514337       2.47980218      12.00000000  F        4       0.00000000       0.00000000       0.00000000       0.00000000       0.00000000       0.00000000
Al       1.43171446       0.82660073      14.33797992  F        3       0.00000000       0.00000000       0.00000000       0.00000000       0.00000000       0.00000000
Al       4.29514337       0.82660073      14.33797992  F        3       0.00000000       0.00000000       0.00000000       0.00000000       0.00000000       0.00000000
Al       2.86342891       3.30640290      14.33797992  F        3       0.00000000       0.00000000       0.00000000       0.00000000       0.00000000       0.00000000
Al       5.72685782       3.30640290      14.33797992  F        3       0.00000000       0.00000000       0.00000000       0.00000000       0.00000000       0.00000000
Al      -0.01485719       1.65317257      16.68001976  T        2       0.13091545      -0.15612108      -2.10194867       0.01115345      -0.04720854      -0.20545301
Al       2.84457647       1.63911850      16.69308827  T        2      -0.44990581      -0.04050704       0.09463346       0.03925021       0.05945188      -0.47714922
Al       1.41453128       4.11819459      16.69389297  T        2      -1.27793957      -0.39901023      -0.81724007       0.08990557       0.02717579      -0.29353927
Al       4.30001871       4.12776336      16.67641543  T        2      -0.67552510       0.88604186      -0.67443723      -0.08765997      -0.00302259      -0.22627844
Al       0.00651372      -0.00898765      18.99945847  T        1      -0.02716149       0.73862518      -0.48741171       0.00950768       0.06806019       0.10457449
Al       2.87495049       0.00681442      19.01443504  T        1      -0.09329129       0.09225750       0.05326929      -0.03152944      -0.57959894      -0.12638567
Al       1.44438391       2.48176519      19.03317629  T        1      -1.02314275       0.06359084       1.13486284      -0.59212099       0.26265543      -0.23289903
Al       4.28332374       2.48195139      19.01328473  T        1      -1.29214509       0.71773968       0.09968216       0.55295049       0.25643054      -0.16795758
Al       2.85755990       1.65686526      21.10335179  T        0      -0.53574357       1.67070892       0.63662446       0.02811887      -0.02799752       0.08323947
17
Lattice="5.726857820829849 0.0 0.0 2.8634289104149246 4.95960435670024 0.0 0.0 0.0 33.11393974525017" Properties=species:S:1:pos:R:3:move_mask:L:1:tags:I:1:momenta:R:3:forces:R:3 coordinates=unwrapped run_id=al-reference step_id=0 evaluation_id=1 physical_time_fs=1.0 route=dft force_source=driving forces_available=T energy=-9134.777126401868 pbc="T T F"
Al       0.00000000       0.00000000      12.00000000  F        4       0.00000000       0.00000000       0.00000000       0.00000000       0.00000000       0.00000000
Al       2.86342891       0.00000000      12.00000000  F        4       0.00000000       0.00000000       0.00000000       0.00000000       0.00000000       0.00000000
Al       1.43171446       2.47980218      12.00000000  F        4       0.00000000       0.00000000       0.00000000       0.00000000       0.00000000       0.00000000
Al       4.29514337       2.47980218      12.00000000  F        4       0.00000000       0.00000000       0.00000000       0.00000000       0.00000000       0.00000000
Al       1.43171446       0.82660073      14.33797992  F        3       0.00000000       0.00000000       0.00000000       0.00000000       0.00000000       0.00000000
Al       4.29514337       0.82660073      14.33797992  F        3       0.00000000       0.00000000       0.00000000       0.00000000       0.00000000       0.00000000
Al       2.86342891       3.30640290      14.33797992  F        3       0.00000000       0.00000000       0.00000000       0.00000000       0.00000000       0.00000000
Al       5.72685782       3.30640290      14.33797992  F        3       0.00000000       0.00000000       0.00000000       0.00000000       0.00000000       0.00000000
Al      -0.01437859       1.65259577      16.67233083  T        2       0.13126450      -0.16041201      -2.12014912      -0.00404640      -0.04015909      -0.16512654
Al       2.84294559       1.63898166      16.69334747  T        2      -0.44572443      -0.03421063       0.04802914       0.04588700       0.06874950      -0.47176173
Al       1.40989498       4.11674684      16.69086530  T        2      -1.26841086      -0.39615647      -0.84506690       0.10410860       0.03092960      -0.27304321
Al       4.29754377       4.13098848      16.67391967  T        2      -0.68421211       0.88488451      -0.69603702      -0.08921626      -0.02054209      -0.21351522
Al       0.00641654      -0.00628650      18.99770273  T        1      -0.02673919       0.74523797      -0.47748345      -0.00090914       0.06658284       0.09757491
Al       2.87460522       0.00704665      19.01460637  T        1      -0.09634844       0.03581169       0.04129700      -0.03071723      -0.56969480      -0.11738244
Al       1.44055326       2.48204366      19.03726614  T        1      -1.08146748       0.08967822       1.11098037      -0.59542948       0.26851009      -0.25337221
Al       4.27871852       2.48461019      19.01361759  T        1      -1.23722368       0.74267084       0.08239245       0.56530490       0.25119320      -0.18407840
Al       2.85561454       1.66294251      21.10568432  T        0      -0.53291642       1.66736748       0.64467717       0.02944479      -0.04003748       0.08072185
17
Lattice="5.726857820829849 0.0 0.0 2.8634289104149246 4.95960435670024 0.0 0.0 0.0 33.11393974525017" Properties=species:S:1:pos:R:3:move_mask:L:1:tags:I:1:momenta:R:3:forces:R:3 coordinates=unwrapped run_id=al-reference step_id=1 evaluation_id=2 physical_time_fs=2.0 route=dft force_source=driving forces_available=T energy=-9134.778489828366 pbc="T T F"
Al       0.00000000       0.00000000      12.00000000  F        4       0.00000000       0.00000000       0.00000000       0.00000000       0.00000000       0.00000000
Al       2.86342891       0.00000000      12.00000000  F        4       0.00000000       0.00000000       0.00000000       0.00000000       0.00000000       0.00000000
Al       1.43171446       2.47980218      12.00000000  F        4       0.00000000       0.00000000       0.00000000       0.00000000       0.00000000       0.00000000
Al       4.29514337       2.47980218      12.00000000  F        4       0.00000000       0.00000000       0.00000000       0.00000000       0.00000000       0.00000000
Al       1.43171446       0.82660073      14.33797992  F        3       0.00000000       0.00000000       0.00000000       0.00000000       0.00000000       0.00000000
Al       4.29514337       0.82660073      14.33797992  F        3       0.00000000       0.00000000       0.00000000       0.00000000       0.00000000       0.00000000
Al       2.86342891       3.30640290      14.33797992  F        3       0.00000000       0.00000000       0.00000000       0.00000000       0.00000000       0.00000000
Al       5.72685782       3.30640290      14.33797992  F        3       0.00000000       0.00000000       0.00000000       0.00000000       0.00000000       0.00000000
Al      -0.01390145       1.65200460      16.66458285  T        2       0.13013122      -0.16401793      -2.13439556      -0.01902848      -0.03326108      -0.12494534
Al       2.84133113       1.63886941      16.69343797  T        2      -0.44089350      -0.02701411       0.00201871       0.05247545       0.07777896      -0.46505732
Al       1.40529592       4.11531016      16.68774000  T        2      -1.25749779      -0.39292868      -0.87087063       0.11809258       0.03479140      -0.25234685
Al       4.29503693       4.13420625      16.67134755  T        2      -0.69303968       0.88201270      -0.71637063      -0.09052212      -0.03793097      -0.20049772
Al       0.00631903      -0.00356154      18.99598189  T        1      -0.02734129       0.75169443      -0.46824035      -0.01135014       0.06487717       0.09062394
Al       2.87424897       0.00707517      19.01473573  T        1      -0.09932595      -0.01956248       0.03019917      -0.02990785      -0.55777928      -0.10858052
Al       1.43650969       2.48241814      19.04126539  T        1      -1.14000354       0.11628827       1.08513540      -0.59642373       0.27329749      -0.27285757
Al       4.27431545       2.48735881      19.01388463  T        1      -1.18120583       0.76704222       0.06356641       0.57527512       0.24503283      -0.19923866
Al       2.85367971       1.66900544      21.10804572  T        0      -0.52996096       1.66286339       0.65242742       0.03073137      -0.05167044       0.07708116
17
Lattice="5.726857820829849 0.0 0.0 2.8634289104149246 4.95960435670024 0.0 0.0 0.0 33.11393974525017" Properties=species:S:1:pos:R:3:move_mask:L:1:tags:I:1:momenta:R:3:forces:R:3 coordinates=unwrapped run_id=al-reference step_id=2 evaluation_id=3 physical_time_fs=3.0 route=dft force_source=driving forces_available=T energy=-9134.779680326505 pbc="T T F"
Al       0.00000000       0.00000000      12.00000000  F        4       0.00000000       0.00000000       0.00000000       0.00000000       0.00000000       0.00000000
Al       2.86342891       0.00000000      12.00000000  F        4       0.00000000       0.00000000       0.00000000       0.00000000       0.00000000       0.00000000
Al       1.43171446       2.47980218      12.00000000  F        4       0.00000000       0.00000000       0.00000000       0.00000000       0.00000000       0.00000000
Al       4.29514337       2.47980218      12.00000000  F        4       0.00000000       0.00000000       0.00000000       0.00000000       0.00000000       0.00000000
Al       1.43171446       0.82660073      14.33797992  F        3       0.00000000       0.00000000       0.00000000       0.00000000       0.00000000       0.00000000
Al       4.29514337       0.82660073      14.33797992  F        3       0.00000000       0.00000000       0.00000000       0.00000000       0.00000000       0.00000000
Al       2.86342891       3.30640290      14.33797992  F        3       0.00000000       0.00000000       0.00000000       0.00000000       0.00000000       0.00000000
Al       5.72685782       3.30640290      14.33797992  F        3       0.00000000       0.00000000       0.00000000       0.00000000       0.00000000       0.00000000
Al      -0.01343110       1.65140154      16.65679019  T        2       0.12753896      -0.16695570      -2.14470291      -0.03375242      -0.02655487      -0.08492277
Al       2.83973543       1.63878497      16.69336217  T        2      -0.43541744      -0.01894569      -0.04327139       0.05902276       0.08650220      -0.45709487
Al       1.40073908       4.11388591      16.68452445  T        2      -1.24522215      -0.38931353      -0.89463297       0.13185184       0.03881672      -0.23147849
Al       4.29249772       4.13741045      16.66870374  T        2      -0.70198528       0.87744149      -0.73541291      -0.09161921      -0.05514348      -0.18722235
Al       0.00621746      -0.00081337      18.99429345  T        1      -0.02896831       0.75797276      -0.45967622      -0.02177776       0.06295604       0.08375035
Al       2.87388203       0.00690422      19.01482625  T        1      -0.10222518      -0.07367103       0.01995489      -0.02912340      -0.54392566      -0.10000332
Al       1.43225284       2.48289036      19.04516707  T        1      -1.19852395       0.14331661       1.05742868      -0.59511118       0.27702687      -0.29127927
Al       4.27011810       2.49019506      19.01408042  T        1      -1.12432541       0.79076338       0.04329931       0.58286784       0.23795382      -0.21342009
Al       2.85175587       1.67504990      21.11043468  T        0      -0.52688102       1.65723905       0.65976612       0.03197938      -0.06284676       0.07234211
17
Lattice="5.726857820829849 0.0 0.0 2.8634289104149246 4.95960435670024 0.0 0.0 0.0 33.11393974525017" Properties=species:S:1:pos:R:3:move_mask:L:1:tags:I:1:momenta:R:3:forces:R:3 coordinates=unwrapped run_id=al-reference step_id=3 evaluation_id=4 physical_time_fs=4.0 route=dft force_source=driving forces_available=T energy=-9134.78069014104 pbc="T T F"
Al       0.00000000       0.00000000      12.00000000  F        4       0.00000000       0.00000000       0.00000000       0.00000000       0.00000000       0.00000000
Al       2.86342891       0.00000000      12.00000000  F        4       0.00000000       0.00000000       0.00000000       0.00000000       0.00000000       0.00000000
Al       1.43171446       2.47980218      12.00000000  F        4       0.00000000       0.00000000       0.00000000       0.00000000       0.00000000       0.00000000
Al       4.29514337       2.47980218      12.00000000  F        4       0.00000000       0.00000000       0.00000000       0.00000000       0.00000000       0.00000000
Al       1.43171446       0.82660073      14.33797992  F        3       0.00000000       0.00000000       0.00000000       0.00000000       0.00000000       0.00000000
Al       4.29514337       0.82660073      14.33797992  F        3       0.00000000       0.00000000       0.00000000       0.00000000       0.00000000       0.00000000
Al       2.86342891       3.30640290      14.33797992  F        3       0.00000000       0.00000000       0.00000000       0.00000000       0.00000000       0.00000000
Al       5.72685782       3.30640290      14.33797992  F        3       0.00000000       0.00000000       0.00000000       0.00000000       0.00000000       0.00000000
Al      -0.01297283       1.65078899      16.64896716  T        2       0.12351569      -0.16924207      -2.15108811      -0.04816551      -0.01999804      -0.04508635
Al       2.83816083       1.63873147      16.69312291  T        2      -0.42930347      -0.01003727      -0.08771852       0.06546389       0.09488220      -0.44789366
Al       1.39622940       4.11247554      16.68122613  T        2      -1.23160893      -0.38529739      -0.91633861       0.14532725       0.04295594      -0.21047026
Al       4.28992574       4.14059494      16.66599297  T        2      -0.71102543       0.87119104      -0.75313906      -0.09244736      -0.07212202      -0.17369989
Al       0.00610811       0.00195730      18.99263496  T        1      -0.03161748       0.76405042      -0.45178303      -0.03216193       0.06079117       0.07696315
Al       2.87350467       0.00653876      19.01488102  T        1      -0.10505027      -0.12632156       0.01053680      -0.02839835      -0.52809229      -0.09175856
Al       1.42778318       2.48346164      19.04896458  T        1      -1.25679766       0.17065688       1.02796476      -0.59140031       0.27964863      -0.30863602
Al       4.26612919       2.49311640      19.01419990  T        1      -1.06681933       0.81374363       0.02168758       0.58801417       0.22994740      -0.22661654
Al       2.84984346       1.68107188      21.11284951  T        0      -0.52368116       1.65054100       0.66658385       0.03317289      -0.07353227       0.06647382
17
Lattice="5.726857820829849 0.0 0.0 2.8634289104149246 4.95960435670024 0.0 0.0 0.0 33.11393974525017" Properties=species:S:1:pos:R:3:move_mask:L:1:tags:I:1:momenta:R:3:forces:R:3 coordinates=unwrapped run_id=al-reference step_id=4 evaluation_id=5 physical_time_fs=5.0 route=dft force_source=driving forces_available=T energy=-9134.781508931646 pbc="T T F"
Al       0.00000000       0.00000000      12.00000000  F        4       0.00000000       0.00000000       0.00000000       0.00000000       0.00000000       0.00000000
Al       2.86342891       0.00000000      12.00000000  F        4       0.00000000       0.00000000       0.00000000       0.00000000       0.00000000       0.00000000
Al       1.43171446       2.47980218      12.00000000  F        4       0.00000000       0.00000000       0.00000000       0.00000000       0.00000000       0.00000000
Al       4.29514337       2.47980218      12.00000000  F        4       0.00000000       0.00000000       0.00000000       0.00000000       0.00000000       0.00000000
Al       1.43171446       0.82660073      14.33797992  F        3       0.00000000       0.00000000       0.00000000       0.00000000       0.00000000       0.00000000
Al       4.29514337       0.82660073      14.33797992  F        3       0.00000000       0.00000000       0.00000000       0.00000000       0.00000000       0.00000000
Al       2.86342891       3.30640290      14.33797992  F        3       0.00000000       0.00000000       0.00000000       0.00000000       0.00000000       0.00000000
Al       5.72685782       3.30640290      14.33797992  F        3       0.00000000       0.00000000       0.00000000       0.00000000       0.00000000       0.00000000
Al      -0.01253178       1.65016928      16.64112801  T        2       0.11809267      -0.17089216      -2.15357157      -0.06225258      -0.01359934      -0.00547954
Al       2.83660965       1.63871189      16.69272349  T        2      -0.42256127      -0.00032448      -0.13120459       0.07181400       0.10288013      -0.43752671
Al       1.39177168       4.11108054      16.67785255  T        2      -1.21668786      -0.38086790      -0.93597619       0.15848075       0.04723297      -0.18937076
Al       4.28732070       4.14375364      16.66322009  T        2      -0.72013302       0.86328596      -0.76952662      -0.09299244      -0.08883342      -0.15996737
Al       0.00598726       0.00474971      18.99100400  T        1      -0.03528290       0.76990369      -0.44455356      -0.04246974       0.05838744       0.07023612
Al       2.87311715       0.00598447      19.01490297  T        1      -0.10780744      -0.17732692       0.00190919      -0.02774041      -0.51042855      -0.08390822
Al       1.42310204       2.48413292      19.05265173  T        1      -1.31459333       0.19820289       0.99684845      -0.58537801       0.28121597      -0.32492344
Al       4.26235054       2.49611997      19.01423833  T        1      -1.00892388       0.83589391      -0.00117433       0.59079559       0.22105472      -0.23887504
Al       2.84794292       1.68706757      21.11528811  T        0      -0.52036743       1.64281929       0.67277017       0.03429800      -0.08368967       0.05948582
17
Lattice="5.726857820829849 0.0 0.0 2.8634289104149246 4.95960435670024 0.0 0.0 0.0 33.11393974525017" Properties=species:S:1:pos:R:3:move_mask:L:1:tags:I:1:momenta:R:3:forces:R:3 coordinates=unwrapped run_id=al-reference step_id=5 evaluation_id=6 physical_time_fs=6.0 route=dft force_source=driving forces_available=T energy=-9134.782121868115 pbc="T T F"
Al       0.00000000       0.00000000      12.00000000  F        4       0.00000000       0.00000000       0.00000000       0.00000000       0.00000000       0.00000000
Al       2.86342891       0.00000000      12.00000000  F        4       0.00000000       0.00000000       0.00000000       0.00000000       0.00000000       0.00000000
Al       1.43171446       2.47980218      12.00000000  F        4       0.00000000       0.00000000       0.00000000       0.00000000       0.00000000       0.00000000
Al       4.29514337       2.47980218      12.00000000  F        4       0.00000000       0.00000000       0.00000000       0.00000000       0.00000000       0.00000000
Al       1.43171446       0.82660073      14.33797992  F        3       0.00000000       0.00000000       0.00000000       0.00000000       0.00000000       0.00000000
Al       4.29514337       0.82660073      14.33797992  F        3       0.00000000       0.00000000       0.00000000       0.00000000       0.00000000       0.00000000
Al       2.86342891       3.30640290      14.33797992  F        3       0.00000000       0.00000000       0.00000000       0.00000000       0.00000000       0.00000000
Al       5.72685782       3.30640290      14.33797992  F        3       0.00000000       0.00000000       0.00000000       0.00000000       0.00000000       0.00000000
Al      -0.01211299       1.64954472      16.63328691  T        2       0.11130416      -0.17192129      -2.15217272      -0.07596839      -0.00735490       0.03396170
Al       2.83508414       1.63872910      16.69216760  T        2      -0.41520216       0.01015368      -0.17361373       0.07802502       0.11046566      -0.42596626
Al       1.38737063       4.10970243      16.67441124  T        2      -1.20049152      -0.37601212      -0.95353377       0.17129308       0.05163573      -0.16811931
Al       4.28468242       4.14688057      16.66039001  T        2      -0.72927957       0.85375492      -0.78455091      -0.09324055      -0.10522806      -0.14594251
Al       0.00585121       0.00756301      18.98939815  T        1      -0.03995587       0.77550824      -0.43796970      -0.05267677       0.05572687       0.06381787
Al       2.87271971       0.00524764      19.01489492  T        1      -0.11050428      -0.22650916      -0.00595594      -0.02716988      -0.49097147      -0.07623399
Al       1.41821156       2.48490476      19.05622268  T        1      -1.37168333       0.22585053       0.96419911      -0.57703221       0.28171785      -0.33985024
Al       4.25878316       2.49920258      19.01419135  T        1      -0.95087095       0.85712819      -0.02518045       0.59122085       0.21129662      -0.24991382
Al       2.84605464       1.69303333      21.11774798  T        0      -0.51694768       1.63412750       0.67821648       0.03533159      -0.09328400       0.05140664
17
Lattice="5.726857820829849 0.0 0.0 2.8634289104149246 4.95960435670024 0.0 0.0 0.0 33.11393974525017" Properties=species:S:1:pos:R:3:move_mask:L:1:tags:I:1:momenta:R:3:forces:R:3 coordinates=unwrapped run_id=al-reference step_id=6 evaluation_id=7 physical_time_fs=7.0 route=dft force_source=driving forces_available=T energy=-9134.782517249554 pbc="T T F"
Al       0.00000000       0.00000000      12.00000000  F        4       0.00000000       0.00000000       0.00000000       0.00000000       0.00000000       0.00000000
Al       2.86342891       0.00000000      12.00000000  F        4       0.00000000       0.00000000       0.00000000       0.00000000       0.00000000       0.00000000
Al       1.43171446       2.47980218      12.00000000  F        4       0.00000000       0.00000000       0.00000000       0.00000000       0.00000000       0.00000000
Al       4.29514337       2.47980218      12.00000000  F        4       0.00000000       0.00000000       0.00000000       0.00000000       0.00000000       0.00000000
Al       1.43171446       0.82660073      14.33797992  F        3       0.00000000       0.00000000       0.00000000       0.00000000       0.00000000       0.00000000
Al       4.29514337       0.82660073      14.33797992  F        3       0.00000000       0.00000000       0.00000000       0.00000000       0.00000000       0.00000000
Al       2.86342891       3.30640290      14.33797992  F        3       0.00000000       0.00000000       0.00000000       0.00000000       0.00000000       0.00000000
Al       5.72685782       3.30640290      14.33797992  F        3       0.00000000       0.00000000       0.00000000       0.00000000       0.00000000       0.00000000
Al      -0.01172137       1.64891752      16.62545794  T        2       0.10318811      -0.17234347      -2.14691842      -0.08928259      -0.00124107       0.07302114
Al       2.83358654       1.63878582      16.69145940  T        2      -0.40724085       0.02135454      -0.21483818       0.08407534       0.11759533      -0.41340514
Al       1.38303084       4.10834278      16.67090982  T        2      -1.18305653      -0.37071889      -0.96900722       0.18370096       0.05613978      -0.14693573
Al       4.28201078       4.14996987      16.65750774  T        2      -0.73843366       0.84263139      -0.79819385      -0.09314593      -0.12125838      -0.13184155
Al       0.00569634       0.01039623      18.98781512  T        1      -0.04562499       0.78083894      -0.43201783      -0.06275215       0.05281149       0.05736826
Al       2.87231256       0.00433524      19.01485961  T        1      -0.11315006      -0.27369464      -0.01310131      -0.02670091      -0.46977272      -0.06925293
Al       1.41311474       2.48577735      19.05967211  T        1      -1.42783996       0.25349537       0.93012856      -0.56637345       0.28115915      -0.35386044
Al       4.25542720       2.50236076      19.01405499  T        1      -0.89289097       0.87736201      -0.05023445       0.58931026       0.20068439      -0.26021109
Al       2.84417900       1.69896573      21.12022623  T        0      -0.51343139       1.62452181       0.68281950       0.03626361      -0.10229752       0.04231548
17
Lattice="5.726857820829849 0.0 0.0 2.8634289104149246 4.95960435670024 0.0 0.0 0.0 33.11393974525017" Properties=species:S:1:pos:R:3:move_mask:L:1:tags:I:1:momenta:R:3:forces:R:3 coordinates=unwrapped run_id=al-reference step_id=7 evaluation_id=8 physical_time_fs=8.0 route=dft force_source=driving forces_available=T energy=-9134.782676708277 pbc="T T F"
Al       0.00000000       0.00000000      12.00000000  F        4       0.00000000       0.00000000       0.00000000       0.00000000       0.00000000       0.00000000
Al       2.86342891       0.00000000      12.00000000  F        4       0.00000000       0.00000000       0.00000000       0.00000000       0.00000000       0.00000000
Al       1.43171446       2.47980218      12.00000000  F        4       0.00000000       0.00000000       0.00000000       0.00000000       0.00000000       0.00000000
Al       4.29514337       2.47980218      12.00000000  F        4       0.00000000       0.00000000       0.00000000       0.00000000       0.00000000       0.00000000
Al       1.43171446       0.82660073      14.33797992  F        3       0.00000000       0.00000000       0.00000000       0.00000000       0.00000000       0.00000000
Al       4.29514337       0.82660073      14.33797992  F        3       0.00000000       0.00000000       0.00000000       0.00000000       0.00000000       0.00000000
Al       2.86342891       3.30640290      14.33797992  F        3       0.00000000       0.00000000       0.00000000       0.00000000       0.00000000       0.00000000
Al       5.72685782       3.30640290      14.33797992  F        3       0.00000000       0.00000000       0.00000000       0.00000000       0.00000000       0.00000000
Al      -0.01136167       1.64828987      16.61765509  T        2       0.09378559      -0.17217047      -2.13783181      -0.10216228       0.00476348       0.11199135
Al       2.83211900       1.63888459      16.69060336  T        2      -0.39869480       0.03323275      -0.25476951       0.08993077       0.12425705      -0.39963714
Al       1.37875674       4.10700320      16.66735585  T        2      -1.16442376      -0.36497907      -0.98238876       0.19568102       0.06072869      -0.12552589
Al       4.27930584       4.15301581      16.65457832  T        2      -0.74756049       0.82995255      -0.81043242      -0.09268570      -0.13689557      -0.11734799
Al       0.00551902       0.01324833      18.98625261  T        1      -0.05227565       0.78587008      -0.42668384      -0.07266195       0.04962769       0.05123720
Al       2.87189586       0.00325485      19.01479953  T        1      -0.11575590      -0.31871533      -0.01957479      -0.02635664      -0.44689402      -0.06255366
Al       1.40781539       2.48675047      19.06299500  T        1      -1.48283713       0.28103337       0.89474854      -0.55342460       0.27954244      -0.36651258
Al       4.25228198       2.50559070      19.01382559  T        1      -0.83521195       0.89651314      -0.07624151       0.58509288       0.18925198      -0.26931896
Al       2.84231632       1.70486155      21.12271962  T        0      -0.50982946       1.61406094       0.68647520       0.03707531      -0.11069628       0.03211822
