686
Lattice="22.155 0.0 0.0 0.0 22.155 0.0 0.0 0.0 22.155" Properties=species:S:1:pos:R:3:momenta:R:3 pbc="T T T"
W        0.79125000       0.79125000       0.79125000       0.75339177       1.79117090       0.72037026
W        2.37375000       2.37375000       2.37375000      -2.84095152       1.97372355       0.97312012
W        0.79125000       0.79125000       3.95625000      -1.17058638       1.26686813       0.79478706
W        2.37375000       2.37375000       5.53875000       0.64122436       0.06196199       1.19186315
W        0.79125000       0.79125000       7.12125000      -1.60550876      -0.35515228      -1.05104554
W        2.37375000       2.37375000       8.70375000       1.30551634       0.08659629      -0.63757115
W        0.79125000       0.79125000      10.28625000      -1.70460170      -0.56069265       0.01775038
W        2.37375000       2.37375000      11.86875000      -0.60082887       2.82112739       2.19471212
W        0.79125000       0.79125000      13.45125000      -5.91047724      -4.11814854      -0.38101238
W        2.37375000       2.37375000      15.03375000      -0.92039737       0.46575301       0.47377328
W        0.79125000       0.79125000      16.61625000       4.61700022      -2.42426393      -0.82319884
W        2.37375000       2.37375000      18.19875000       4.45334988       1.40984665       1.44551313
W        0.79125000       0.79125000      19.78125000      -1.12056101      -3.59289082       0.36508198
W        2.37375000       2.37375000      21.36375000       0.23765646      -2.67569223      -1.48947017
W        0.79125000       3.95625000       0.79125000      -0.15705902      -2.05960838      -0.21423371
W        2.37375000       5.53875000       2.37375000       0.20815804       0.07757987      -1.10374253
W        0.79125000       3.95625000       3.95625000       1.29440212       1.94279098       0.69946623
W        2.37375000       5.53875000       5.53875000      -1.78378506       1.59504058      -1.09316570
W        0.79125000       3.95625000       7.12125000       1.91661653      -2.33655311       1.99358675
W        2.37375000       5.53875000       8.70375000      -0.04373939      -2.72233846      -0.68431741
W        0.79125000       3.95625000      10.28625000       0.11794582       0.59469951      -2.14122193
W        2.37375000       5.53875000      11.86875000      -2.41413167       0.43510481      -1.01753879
W        0.79125000       3.95625000      13.45125000       0.51341466       1.65579263      -3.59444345
W        2.37375000       5.53875000      15.03375000       0.55457952       2.66979500      -0.64862422
W        0.79125000       3.95625000      16.61625000      -1.76761857       1.63993123       0.55252678
W        2.37375000       5.53875000      18.19875000       1.95307236      -0.75258846      -3.23044201
W        0.79125000       3.95625000      19.78125000      -0.23982927      -0.97192889       1.69024684
W        2.37375000       5.53875000      21.36375000       0.42212983      -3.55533737      -2.60551857
W        0.79125000       7.12125000       0.79125000       1.92670673       1.48192360      -1.39576432
W        2.37375000       8.70375000       2.37375000      -0.00228643       0.97137385       1.02114616
W        0.79125000       7.12125000       3.95625000       1.91025422       0.55915220      -0.20673078
W        2.37375000       8.70375000       5.53875000      -0.56430244       2.30157500      -4.90698107
W        0.79125000       7.12125000       7.12125000      -0.30227592       0.07194197      -3.10733593
W        2.37375000       8.70375000       8.70375000       0.72555124      -1.41982697       1.88017516
W        0.79125000       7.12125000      10.28625000      -0.27379737       1.45878937       2.65714336
W        2.37375000       8.70375000      11.86875000       0.83480669      -1.90911829      -3.30129451
W        0.79125000       7.12125000      13.45125000       3.82246988      -0.24262285      -1.50110791
W        2.37375000       8.70375000      15.03375000       0.31448806      -0.41728680       1.85771509
W        0.79125000       7.12125000      16.61625000       0.07396523       0.02997482      -1.55782149
W        2.37375000       8.70375000      18.19875000       1.02368323      -2.25388400       1.45167411
W        0.79125000       7.12125000      19.78125000       3.32226418      -3.32389600      -5.37650984
W        2.37375000       8.70375000      21.36375000       1.34482823       5.55455166      -2.18206898
W        0.79125000      10.28625000       0.79125000      -2.72658274       1.28398335      -1.83281742
W        2.37375000      11.86875000       2.37375000      -1.10316225      -0.75891444       1.15979262
W        0.79125000      10.28625000       3.95625000      -0.88358053       0.60579925      -0.38485182
W        2.37375000      11.86875000       5.53875000      -1.84142757      -0.69723812      -2.07192141
W        0.79125000      10.28625000       7.12125000       0.01420301      -2.45008767      -2.38256738
W        2.37375000      11.86875000       8.70375000       3.17625362      -0.11594441      -0.11750926
W        0.79125000      10.28625000      10.28625000       1.11517638      -0.91749047      -0.49821916
W        2.37375000      11.86875000      11.86875000       0.92684667       0.61568144      -2.52732803
W        0.79125000      10.28625000      13.45125000       1.81673083      -1.28717933      -2.30230783
W        2.37375000      11.86875000      15.03375000      -1.96308316      -0.85140946       3.54760041
W        0.79125000      10.28625000      16.61625000      -2.56273029       0.34897389      -4.66056989
W        2.37375000      11.86875000      18.19875000      -0.00341600       1.96110225      -0.51593853
W        0.79125000      10.28625000      19.78125000      -1.37202694       0.50470633       1.52636776
W        2.37375000      11.86875000      21.36375000       1.44680852       4.30009707       0.45599612
W        0.79125000      13.45125000       0.79125000      -1.29148527      -0.27464128      -0.15805065
W        2.37375000      15.03375000       2.37375000       0.23705323      -0.06546222       0.37925492
W        0.79125000      13.45125000       3.95625000      -3.64254128       1.80863489      -1.25296193
W        2.37375000      15.03375000       5.53875000      -2.55754785       1.39033117       2.87184020
W        0.79125000      13.45125000       7.12125000       1.07482738       0.35133581      -2.03228945
W        2.37375000      15.03375000       8.70375000       6.26016829       1.91901023      -2.48372249
W        0.79125000      13.45125000      10.28625000      -1.69965179       0.18961935      -3.38939589
W        2.37375000      15.03375000      11.86875000       0.36762318      -1.00080021       2.67333460
W        0.79125000      13.45125000      13.45125000       2.09754793      -5.91074530       0.09091384
W        2.37375000      15.03375000      15.03375000      -3.52616448       2.41906938       0.36647966
W        0.79125000      13.45125000      16.61625000       1.19555282      -2.32202810       3.98607438
W        2.37375000      15.03375000      18.19875000       4.40386652      -2.32125705       0.81275663
W        0.79125000      13.45125000      19.78125000      -1.46783482      -0.05138371      -2.75915539
W        2.37375000      15.03375000      21.36375000       4.07047573      -2.11286247      -0.64547834
W        0.79125000      16.61625000       0.79125000       1.09325925      -1.41171644      -0.52171372
W        2.37375000      18.19875000       2.37375000      -1.22876460      -0.29095149      -2.55184470
W        0.79125000      16.61625000       3.95625000      -0.95483711      -0.45103749      -0.72754030
W        2.37375000      18.19875000       5.53875000       0.12358709      -0.63897830       1.64204061
W        0.79125000      16.61625000       7.12125000      -0.70458417      -0.29790333      -1.44925838
W        2.37375000      18.19875000       8.70375000      -1.14783013      -2.75666100       1.13097850
W        0.79125000      16.61625000      10.28625000      -2.49074956      -1.62600630       0.78317229
W        2.37375000      18.19875000      11.86875000       0.87763118      -0.87227127      -4.40210600
W        0.79125000      16.61625000      13.45125000       0.91674115       0.56586203      -3.07906556
W        2.37375000      18.19875000      15.03375000       1.67934278      -1.52843455      -2.45514951
W        0.79125000      16.61625000      16.61625000       0.20869800      -0.38907496       0.44173101
W        2.37375000      18.19875000      18.19875000      -3.50061548       3.95075726      -1.31382757
W        0.79125000      16.61625000      19.78125000      -3.35653852       1.34910862      -0.77349172
W        2.37375000      18.19875000      21.36375000       0.70820864      -0.74036430      -0.13023714
W        0.79125000      19.78125000       0.79125000       0.53579777      -1.62774268       1.47968813
W        2.37375000      21.36375000       2.37375000      -1.02440701      -1.89596386       0.16793474
W        0.79125000      19.78125000       3.95625000       0.97021347      -0.49940505      -1.88033864
W        2.37375000      21.36375000       5.53875000       1.35116523      -3.83760964      -2.24733820
W        0.79125000      19.78125000       7.12125000       0.08616199      -2.96718130       0.06102897
W        2.37375000      21.36375000       8.70375000      -0.11960449       1.95930016      -1.99429123
W        0.79125000      19.78125000      10.28625000      -1.36450924       0.72635365      -5.35761828
W        2.37375000      21.36375000      11.86875000       6.75825576      -1.52309545      -1.59107892
W        0.79125000      19.78125000      13.45125000       1.87730341      -0.08683552      -3.87924827
W        2.37375000      21.36375000      15.03375000       1.36673476       1.86476881      -0.98090661
W        0.79125000      19.78125000      16.61625000      -0.61390364       1.05947206      -1.98118889
W        2.37375000      21.36375000      18.19875000       0.95571020       0.43448127      -1.47138871
W        0.79125000      19.78125000      19.78125000      -3.03485553      -0.49183261      -1.90846671
W        2.37375000      21.36375000      21.36375000       2.18312712       0.31411370       1.70498552
W        3.95625000       0.79125000       0.79125000       0.29348292       0.57313831      -1.70697895
W        5.53875000       2.37375000       2.37375000       1.45637863       3.89073640      -0.67513521
W        3.95625000       0.79125000       3.95625000      -1.29227974      -0.34409234      -1.04921641
W        5.53875000       2.37375000       5.53875000      -1.52926188       0.30126943      -0.63421557
W        3.95625000       0.79125000       7.12125000       3.13682035       0.00043959       0.70614520
W        5.53875000       2.37375000       8.70375000       2.07545790      -0.65566363       3.13216146
W        3.95625000       0.79125000      10.28625000      -1.37930676      -1.76219704      -0.79848142
W        5.53875000       2.37375000      11.86875000      -0.25008997      -3.05494761      -0.07650848
W        3.95625000       0.79125000      13.45125000      -3.63520874       3.03493516      -0.17657763
W        5.53875000       2.37375000      15.03375000      -1.39950171      -1.98022502      -0.83807872
W        3.95625000       0.79125000      16.61625000      -0.48632501      -2.27708901      -2.00520183
W        5.53875000       2.37375000      18.19875000      -0.40805139      -1.13533605       2.04753412
W        3.95625000       0.79125000      19.78125000       2.48061745       0.03492707       1.03247205
W        5.53875000       2.37375000      21.36375000      -2.91078110       1.38960424      -0.06667358
W        3.95625000       3.95625000       0.79125000       1.05660250       3.48886080      -4.97239024
W        5.53875000       5.53875000       2.37375000       0.56888080      -2.39613755       1.29102003
W        3.95625000       3.95625000       3.95625000      -2.86309258      -1.07999719       0.44197028
W        5.53875000       5.53875000       5.53875000       1.33748283       0.16305506      -1.72841328
W        3.95625000       3.95625000       7.12125000      -1.20672944       1.92826297      -0.01198945
W        5.53875000       5.53875000       8.70375000      -3.67080422       1.83922921       0.90744365
W        3.95625000       3.95625000      10.28625000       1.90409197      -0.73386564       1.80542490
W        5.53875000       5.53875000      11.86875000      -2.31317751       1.24262966      -1.06905495
W        3.95625000       3.95625000      13.45125000       1.47012229       2.19235723      -1.60449736
W        5.53875000       5.53875000      15.03375000      -0.11168297       0.08492314       2.59353207
W        3.95625000       3.95625000      16.61625000       1.54905413      -2.65808937       0.99761015
W        5.53875000       5.53875000      18.19875000       1.62433379       4.63000890      -3.66063362
W        3.95625000       3.95625000      19.78125000      -1.16927631       2.90681954      -2.95412474
W        5.53875000       5.53875000      21.36375000      -2.61488735       1.12726647       2.22018461
W        3.95625000       7.12125000       0.79125000      -1.45775874       1.17750573       0.25496866
W        5.53875000       8.70375000       2.37375000       3.31095302      -0.00331028       2.15879138
W        3.95625000       7.12125000       3.95625000      -1.96884458      -0.40304565      -0.21082081
W        5.53875000       8.70375000       5.53875000       2.48331542       1.26358701      -1.63886149
W        3.95625000       7.12125000       7.12125000       1.48672570       1.68001684      -0.24339356
W        5.53875000       8.70375000       8.70375000      -0.56171744      -0.42250130      -3.69517287
W        3.95625000       7.12125000      10.28625000       0.41146972       0.51139226      -1.88689785
W        5.53875000       8.70375000      11.86875000       1.61857199      -2.99314036      -1.20298106
W        3.95625000       7.12125000      13.45125000      -1.03600264       4.33287629      -3.48630563
W        5.53875000       8.70375000      15.03375000       1.22656364       2.05387845       0.82346166
W        3.95625000       7.12125000      16.61625000       2.57640367      -2.18602106      -4.97108405
W        5.53875000       8.70375000      18.19875000       1.67170345      -2.60696849      -0.71156895
W        3.95625000       7.12125000      19.78125000      -2.56994647       2.29416077       1.88607316
W        5.53875000       8.70375000      21.36375000      -1.56977677       1.96965989       0.26439082
W        3.95625000      10.28625000       0.79125000      -0.30387500       0.12517135      -0.44200430
W        5.53875000      11.86875000       2.37375000       1.34074392       0.67657408      -0.76185682
W        3.95625000      10.28625000       3.95625000       2.19369061      -1.33304910       0.62553048
W        5.53875000      11.86875000       5.53875000       0.92032098       3.22387741      -1.10188884
W        3.95625000      10.28625000       7.12125000       3.80001169       0.38404889      -0.42287990
W        5.53875000      11.86875000       8.70375000      -1.46602608       1.27815059       0.10668141
W        3.95625000      10.28625000      10.28625000      -2.40592642      -2.45885355      -1.21106118
W        5.53875000      11.86875000      11.86875000      -1.47372875       2.37691674       2.99874606
W        3.95625000      10.28625000      13.45125000       1.89350580       0.78017306      -0.93358189
W        5.53875000      11.86875000      15.03375000       0.11877627       1.92870795       4.64563190
W        3.95625000      10.28625000      16.61625000       1.99016843      -0.61131327       0.08289667
W        5.53875000      11.86875000      18.19875000      -1.05197334      -1.70567017      -0.40165729
W        3.95625000      10.28625000      19.78125000       0.42645035       4.00236232       0.11343353
W        5.53875000      11.86875000      21.36375000       2.95911221       3.85321945       0.17180531
W        3.95625000      13.45125000       0.79125000       3.50508640       1.55859690      -0.91024897
W        5.53875000      15.03375000       2.37375000       0.57810644       0.04987485      -0.50651134
W        3.95625000      13.45125000       3.95625000      -0.43335358       0.31438389       0.94653779
W        5.53875000      15.03375000       5.53875000      -1.92908917      -0.02046560      -3.31881426
W        3.95625000      13.45125000       7.12125000       0.56854795       1.35947976       0.35743020
W        5.53875000      15.03375000       8.70375000       0.62317495       1.28610709      -1.44995493
W        3.95625000      13.45125000      10.28625000      -0.52113913       1.11383701       2.18416376
W        5.53875000      15.03375000      11.86875000       0.86094949       5.56536822      -0.19917087
W        3.95625000      13.45125000      13.45125000       2.17931248       2.76153317      -0.29162532
W        5.53875000      15.03375000      15.03375000      -1.78876137      -2.57813677       0.35377242
W        3.95625000      13.45125000      16.61625000       2.42049504       0.59225144       0.37683536
W        5.53875000      15.03375000      18.19875000      -0.82670627       1.22307442      -4.65622437
W        3.95625000      13.45125000      19.78125000       0.50658595       0.06131684      -2.98741403
W        5.53875000      15.03375000      21.36375000       4.74291825      -3.02463404      -2.34905153
W        3.95625000      16.61625000       0.79125000      -2.61794493       2.42066039      -1.93607185
W        5.53875000      18.19875000       2.37375000       1.45770626       1.28080313       0.56609520
W        3.95625000      16.61625000       3.95625000      -2.85059100      -1.33442420       3.64747890
W        5.53875000      18.19875000       5.53875000      -2.81391269      -1.81305169      -0.35370598
W        3.95625000      16.61625000       7.12125000       1.76364104       0.54858671       1.61769542
W        5.53875000      18.19875000       8.70375000      -2.32675774       2.05966282       1.24051284
W        3.95625000      16.61625000      10.28625000      -3.47623486       3.35709858       4.99754828
W        5.53875000      18.19875000      11.86875000      -1.67553919       0.12132608       3.04645496
W        3.95625000      16.61625000      13.45125000      -3.22918185      -4.33800048      -2.82740661
W        5.53875000      18.19875000      15.03375000      -1.23623551      -1.26103454       1.32404888
W        3.95625000      16.61625000      16.61625000       0.58542346      -2.71651418       1.23691827
W        5.53875000      18.19875000      18.19875000       4.08559620       2.60964148       2.16066652
W        3.95625000      16.61625000      19.78125000       0.04398895       2.14436833      -2.10622052
W        5.53875000      18.19875000      21.36375000       1.63725153      -0.19020616       2.46543409
W        3.95625000      19.78125000       0.79125000       1.01592759      -2.37599543       0.27903139
W        5.53875000      21.36375000       2.37375000       2.65578708      -2.46178945      -1.21895443
W        3.95625000      19.78125000       3.95625000      -1.67574771      -3.26058706       2.09561555
W        5.53875000      21.36375000       5.53875000       2.85804329       1.74413640       0.52881609
W        3.95625000      19.78125000       7.12125000      -0.11343116       0.52186168      -1.59483049
W        5.53875000      21.36375000       8.70375000       1.94863057       2.27922842       2.03299410
W        3.95625000      19.78125000      10.28625000      -1.15749513       0.17092560      -0.36141093
W        5.53875000      21.36375000      11.86875000       3.89918740       0.39174720      -4.10301384
W        3.95625000      19.78125000      13.45125000       0.86876334       4.10343973       1.49371921
W        5.53875000      21.36375000      15.03375000       1.91731217       0.07861546      -4.29773309
W        3.95625000      19.78125000      16.61625000      -3.94645741      -2.71623188      -0.27650053
W        5.53875000      21.36375000      18.19875000       0.67581308       1.50295922      -0.74221650
W        3.95625000      19.78125000      19.78125000       2.08615627      -0.60986705      -1.53582431
W        5.53875000      21.36375000      21.36375000       1.85662387      -1.99353831      -5.94954913
W        7.12125000       0.79125000       0.79125000      -2.31076166       0.20527278      -6.71495002
W        8.70375000       2.37375000       2.37375000      -0.77857978      -0.72397450      -3.10974927
W        7.12125000       0.79125000       3.95625000      -3.23193577      -1.00819145      -1.19270723
W        8.70375000       2.37375000       5.53875000       2.74668882       0.81722122      -3.44634827
W        7.12125000       0.79125000       7.12125000      -1.86318529       1.53724573       4.13332938
W        8.70375000       2.37375000       8.70375000       0.84258929       0.67736974       4.05653854
W        7.12125000       0.79125000      10.28625000      -0.04942494      -0.67385640      -3.08095691
W        8.70375000       2.37375000      11.86875000      -1.11840212       4.74970872      -3.09947124
W        7.12125000       0.79125000      13.45125000       0.02439851      -3.07022809       0.28008391
W        8.70375000       2.37375000      15.03375000       1.93511773      -0.53116837       1.59219558
W        7.12125000       0.79125000      16.61625000       1.57147757       0.97453768       3.74151118
W        8.70375000       2.37375000      18.19875000       1.69790696      -0.66482794      -1.48423125
W        7.12125000       0.79125000      19.78125000      -1.84281243       1.03741612      -0.70573063
W        8.70375000       2.37375000      21.36375000       5.94972813       4.01663298      -0.46767364
W        7.12125000       3.95625000       0.79125000      -0.71752350       3.68467406      -4.10582369
W        8.70375000       5.53875000       2.37375000      -0.98440513       2.07270031      -1.98842083
W        7.12125000       3.95625000       3.95625000      -1.03951450      -0.76550627       1.44059739
W        8.70375000       5.53875000       5.53875000       0.29981586       0.87657177       1.29774993
W        7.12125000       3.95625000       7.12125000       0.06526692       2.42109290      -1.58916880
W        8.70375000       5.53875000       8.70375000      -3.13082063      -3.87367428      -3.53388684
W        7.12125000       3.95625000      10.28625000      -1.20015333       2.24555657       0.37969272
W        8.70375000       5.53875000      11.86875000      -1.30486319      -2.33234164      -1.15299862
W        7.12125000       3.95625000      13.45125000      -0.88001402      -1.23194649      -3.12302220
W        8.70375000       5.53875000      15.03375000      -1.03728615       2.21741043      -4.74076222
W        7.12125000       3.95625000      16.61625000      -0.52453960      -4.62465133       0.39905345
W        8.70375000       5.53875000      18.19875000      -1.62956631      -4.54690915       0.21953609
W        7.12125000       3.95625000      19.78125000       3.96203955       0.23738929       2.53276673
W        8.70375000       5.53875000      21.36375000      -0.15588337      -4.70366184       1.06927989
W        7.12125000       7.12125000       0.79125000      -0.91187096      -3.18742228       1.71098536
W        8.70375000       8.70375000       2.37375000       0.62536463      -1.14542074       1.89243714
W        7.12125000       7.12125000       3.95625000      -1.90116290       1.40271644      -2.05025344
W        8.70375000       8.70375000       5.53875000       1.16404955      -2.39968859       3.24650885
W        7.12125000       7.12125000       7.12125000       0.55440377       3.12374335      -1.79297562
W        8.70375000       8.70375000       8.70375000     -10.17741263       9.89196635      12.85372898
W        7.12125000       7.12125000      10.28625000      -2.32566034       2.25238026       1.01396286
W        8.70375000       8.70375000      11.86875000     -12.75446053       7.00071554       0.03178838
W        7.12125000       7.12125000      13.45125000      -1.59327907      -2.99094598      -3.69474246
W        8.70375000       8.70375000      15.03375000      -4.53652579       8.62850380       1.35435247
W        7.12125000       7.12125000      16.61625000      -7.73658206      -4.35706129      -1.16116693
W        8.70375000       8.70375000      18.19875000       0.62571139      -1.26179846      -1.91168216
W        7.12125000       7.12125000      19.78125000      -5.03259366       4.40697456      -2.40048068
W        8.70375000       8.70375000      21.36375000       3.66989348       3.40237764       0.59717982
W        7.12125000      10.28625000       0.79125000      -1.24831871       0.28823683      -2.51369234
W        8.70375000      11.86875000       2.37375000       0.56840543       0.00643584       1.15971889
W        7.12125000      10.28625000       3.95625000       2.07200247       3.77767932      -0.84654901
W        8.70375000      11.86875000       5.53875000       2.27464180      -1.72588145      -1.95019878
W        7.12125000      10.28625000       7.12125000      -1.34739564      -2.14073694       2.13702793
W        8.70375000      11.86875000       8.70375000      -6.41644036       1.54248768     -20.56155446
W        7.12125000      10.28625000      10.28625000      -6.86544854      -4.06035423     -13.85220086
W        8.70375000      11.86875000      11.86875000       1.76286624       3.87981620      -4.93599229
W        7.12125000      10.28625000      13.45125000      -2.19305795       8.38529170      13.73547306
W        8.70375000      11.86875000      15.03375000      -8.86734739       4.59238354      13.44940543
W        7.12125000      10.28625000      16.61625000       2.07648737       1.23379696       2.57991862
W        8.70375000      11.86875000      18.19875000       0.28449110      -2.82982545      -0.82624330
W        7.12125000      10.28625000      19.78125000      -2.59757168       0.97403703       2.61324217
W        8.70375000      11.86875000      21.36375000       0.68909373      -1.33532791      -0.83567335
W        7.12125000      13.45125000       0.79125000       0.41519105      -3.18365616       0.29343977
W        8.70375000      15.03375000       2.37375000       0.40003505      -1.22135903      -0.94621978
W        7.12125000      13.45125000       3.95625000       0.33538944      -1.82751391      -1.83225323
W        8.70375000      15.03375000       5.53875000       1.65677658       0.44335890       3.61597416
W        7.12125000      13.45125000       7.12125000      -2.19744522      -3.92620057       2.00298644
W        8.70375000      15.03375000       8.70375000      -0.68296254      -7.94507245      -6.89415601
W        7.12125000      13.45125000      10.28625000      -4.00706412     -10.92357897      24.36154777
W        8.70375000      15.03375000      11.86875000      -6.82958534       4.93172534       3.73625140
W        7.12125000      13.45125000      13.45125000       6.73140014      -3.68987118     -12.97529496
W        8.70375000      15.03375000      15.03375000       1.60285890      -1.47606302      -2.02414201
W        7.12125000      13.45125000      16.61625000      -3.34655184       2.18508533      -0.21142093
W        8.70375000      15.03375000      18.19875000       3.44953730      -2.65926871      -0.57791542
W        7.12125000      13.45125000      19.78125000       0.07888911       2.98268648       3.87381129
W        8.70375000      15.03375000      21.36375000      -1.51425016      -2.57308120      -3.88887725
W        7.12125000      16.61625000       0.79125000       2.80948450      -0.29647460      -1.52053647
W        8.70375000      18.19875000       2.37375000      -0.22114457      -5.68755811      -3.87315373
W        7.12125000      16.61625000       3.95625000       1.92673561       0.75000912       0.21381847
W        8.70375000      18.19875000       5.53875000      -2.29709306       1.16708045       3.76256466
W        7.12125000      16.61625000       7.12125000      -2.78451214      -0.08319763      -1.06426628
W        8.70375000      18.19875000       8.70375000       0.67061003      -0.08594905      -0.43736209
W        7.12125000      16.61625000      10.28625000      -2.04012683      -0.15169953      -1.45690999
W        8.70375000      18.19875000      11.86875000      -0.43687511      -0.25618623       1.30867590
W        7.12125000      16.61625000      13.45125000      -1.38720535      -0.82279596       2.21922155
W        8.70375000      18.19875000      15.03375000      -0.59368765      -0.68881867       1.76643167
W        7.12125000      16.61625000      16.61625000       0.47639861       0.08119088       0.36231493
W        8.70375000      18.19875000      18.19875000      -2.81885248       0.88990549       2.77694677
W        7.12125000      16.61625000      19.78125000       1.15524581      -3.50155073       0.51287986
W        8.70375000      18.19875000      21.36375000      -2.07699059      -0.59589480       0.18292762
W        7.12125000      19.78125000       0.79125000      -2.69679180       2.81685803      -0.24342831
W        8.70375000      21.36375000       2.37375000       1.63592552       1.29381740       2.84138631
W        7.12125000      19.78125000       3.95625000       2.51091582      -3.29876905       0.01048802
W        8.70375000      21.36375000       5.53875000      -4.73595864      -1.05465934       1.47899725
W        7.12125000      19.78125000       7.12125000       1.91473304       2.73340674      -0.89769700
W        8.70375000      21.36375000       8.70375000       0.62341678       0.13881187       2.68950234
W        7.12125000      19.78125000      10.28625000       3.39063603      -0.85356325       8.17876216
W        8.70375000      21.36375000      11.86875000      -0.07857070      -0.86959783       1.23792124
W        7.12125000      19.78125000      13.45125000       1.58531776       1.12406628      -1.48173092
W        8.70375000      21.36375000      15.03375000       3.14756229       0.05629739       3.29290465
W        7.12125000      19.78125000      16.61625000       2.97917696      -2.83157292      -2.18945560
W        8.70375000      21.36375000      18.19875000      -2.23288228       0.49504106       0.07001048
W        7.12125000      19.78125000      19.78125000       0.53972708      -1.81535350       0.88760274
W        8.70375000      21.36375000      21.36375000       3.01960112      -2.95090789      -0.46608491
W       10.28625000       0.79125000       0.79125000       0.50360473      -0.32057802      -0.46680913
W       11.86875000       2.37375000       2.37375000       3.82002793       2.76227401       1.81684494
W       10.28625000       0.79125000       3.95625000      -1.69433605       4.85194007       0.75408605
W       11.86875000       2.37375000       5.53875000      -1.29271884      -0.76820106      -1.09946300
W       10.28625000       0.79125000       7.12125000       4.59236102       0.41679769       0.10751951
W       11.86875000       2.37375000       8.70375000      -4.72332881       1.57794454      -2.33591772
W       10.28625000       0.79125000      10.28625000      -2.49170576       1.30706741      -1.91061681
W       11.86875000       2.37375000      11.86875000       1.79382360       2.41744543      -3.92931602
W       10.28625000       0.79125000      13.45125000      -0.32506774      -3.45934689      -0.16336004
W       11.86875000       2.37375000      15.03375000       1.96029903      -3.00155630       3.90046278
W       10.28625000       0.79125000      16.61625000      -0.70773481      -2.61076099      -0.30371918
W       11.86875000       2.37375000      18.19875000       1.69340989      -3.03666807      -0.03110055
W       10.28625000       0.79125000      19.78125000      -3.02986457       2.58891331       0.30057018
W       11.86875000       2.37375000      21.36375000      -0.96507634       2.21817419      -2.84848148
W       10.28625000       3.95625000       0.79125000      -0.89749893       3.98408689      -0.31189226
W       11.86875000       5.53875000       2.37375000       2.91595340       0.38311364      -1.56882038
W       10.28625000       3.95625000       3.95625000      -0.58037663       0.12411921      -0.93745259
W       11.86875000       5.53875000       5.53875000      -1.84149434      -1.74925619      -3.27981947
W       10.28625000       3.95625000       7.12125000       0.19424983       0.81115587       1.58555216
W       11.86875000       5.53875000       8.70375000      -3.98423444       1.70887299      -0.08525330
W       10.28625000       3.95625000      10.28625000      -3.16241931       0.16532455       1.72789850
W       11.86875000       5.53875000      11.86875000       1.09094360       1.53329048       2.01291778
W       10.28625000       3.95625000      13.45125000       1.90527292      -0.12524414      -4.58733374
W       11.86875000       5.53875000      15.03375000      -1.70312604       0.72943723      -1.07012865
W       10.28625000       3.95625000      16.61625000       1.44838827       1.69350445       0.05963668
W       11.86875000       5.53875000      18.19875000       4.05312597      -2.17031433       1.98615523
W       10.28625000       3.95625000      19.78125000      -1.07386348      -1.74505880       1.24004730
W       11.86875000       5.53875000      21.36375000      -1.38567155       1.82969426      -2.58618282
W       10.28625000       7.12125000       0.79125000       0.03397380      -1.88123276      -0.55477560
W       11.86875000       8.70375000       2.37375000      -0.85329737      -2.50263382       1.38712324
W       10.28625000       7.12125000       3.95625000      -2.75611762      -2.17806797       1.90264359
W       11.86875000       8.70375000       5.53875000       2.08138434       1.41582496       0.70206548
W       10.28625000       7.12125000       7.12125000       4.92751337      -2.67580855      -1.65899438
W       11.86875000       8.70375000       8.70375000      17.97473602      -0.26078087       2.93728493
W       10.28625000       7.12125000      10.28625000       1.77081873      14.81557599      10.27811904
W       11.86875000       8.70375000      11.86875000      12.73253006       9.87515319       3.35211655
W       10.28625000       7.12125000      13.45125000       2.38896528      -7.73869053     -20.18786394
W       11.86875000       8.70375000      15.03375000      -3.16151824     -11.44886789      30.76239102
W       10.28625000       7.12125000      16.61625000      -5.27245622      -0.16611875      -0.86577235
W       11.86875000       8.70375000      18.19875000       0.59941929       0.42476053       1.82844947
W       10.28625000       7.12125000      19.78125000      -0.06027689       1.70574259      -5.61460166
W       11.86875000       8.70375000      21.36375000      -2.43223491       3.73103559      -2.68913627
W       10.28625000      10.28625000       0.79125000      -0.63941987       1.50991225      -1.95489604
W       11.86875000      11.86875000       2.37375000       1.54429377      -3.14419514      -4.20206517
W       10.28625000      10.28625000       3.95625000      -2.92879689      -3.63603896      -0.06945512
W       11.86875000      11.86875000       5.53875000      -0.72364526       0.68514173      -2.28882534
W       10.28625000      10.28625000       7.12125000      17.08204246      13.80807784      -4.56239570
W       11.86875000      11.86875000       8.70375000      22.70973897     -18.55589736     -11.96670604
W       10.28625000      10.28625000      10.28625000      -9.25820435     -10.15559106       3.12949667
W       11.86875000      11.86875000      11.86875000       1.71505802      22.13161240      12.86595223
W       10.28625000      10.28625000      13.45125000      13.27719428       5.34048248      -0.01964014
W       11.86875000      11.86875000      15.03375000      -8.19433842     -16.35976967      -8.15316834
W       10.28625000      10.28625000      16.61625000      -1.07273688      -0.97076290      -0.68253242
W       11.86875000      11.86875000      18.19875000      -5.28496045      -0.23456516      -6.33343099
W       10.28625000      10.28625000      19.78125000       0.62587875       1.14855581       1.28061169
W       11.86875000      11.86875000      21.36375000      -2.64894213       2.06025410      -1.90516395
W       10.28625000      13.45125000       0.79125000      -2.69634844      -2.15787938      -1.86838863
W       11.86875000      15.03375000       2.37375000       0.35645920       1.77894639      -4.60003350
W       10.28625000      13.45125000       3.95625000      -1.19745292       1.94890536       0.42771533
W       11.86875000      15.03375000       5.53875000       1.09389224      -3.28026210       2.06829761
W       10.28625000      13.45125000       7.12125000      -4.75459250       9.21735771     -17.34764118
W       11.86875000      15.03375000       8.70375000     -15.84837418       3.10060212     -10.17103493
W       10.28625000      13.45125000      10.28625000       3.30853632      -4.00572926      -6.82637110
W       11.86875000      15.03375000      11.86875000     -15.47525593      -0.42917994      -6.56694412
W       10.28625000      13.45125000      13.45125000      -7.36928734      -6.54692682       3.73298852
W       11.86875000      15.03375000      15.03375000      -1.10546077       3.44547876       0.38862961
W       10.28625000      13.45125000      16.61625000      -0.62914937      -2.47868247      -1.35071498
W       11.86875000      15.03375000      18.19875000      -0.54500502       2.98477095      -1.33091065
W       10.28625000      13.45125000      19.78125000       3.91174664      -2.02458844      -0.77955810
W       11.86875000      15.03375000      21.36375000       1.83896966      -0.52363762      -1.81001506
W       10.28625000      16.61625000       0.79125000      -0.28742559       0.97821691      -3.74039111
W       11.86875000      18.19875000       2.37375000      -0.54182235      -0.23835961      -0.88019142
W       10.28625000      16.61625000       3.95625000       1.60311502      -1.23947373      -0.79466160
W       11.86875000      18.19875000       5.53875000       0.08206283       1.58892948      -0.48214617
W       10.28625000      16.61625000       7.12125000       3.30626206      -1.97887378       2.80466916
W       11.86875000      18.19875000       8.70375000      -1.87009624      -0.35549353       0.79363989
W       10.28625000      16.61625000      10.28625000       4.47965931       1.95294826      -0.88480242
W       11.86875000      18.19875000      11.86875000       2.83214821      -0.46588797      -1.72539372
W       10.28625000      16.61625000      13.45125000       0.97815630       0.20595143       2.07904299
W       11.86875000      18.19875000      15.03375000      -1.19845864       0.83169775       1.38335102
W       10.28625000      16.61625000      16.61625000       0.60615399      -0.06318563      -1.52084486
W       11.86875000      18.19875000      18.19875000       1.97022659       0.29915665       1.08196884
W       10.28625000      16.61625000      19.78125000      -0.76471507       0.02836617      -2.26121174
W       11.86875000      18.19875000      21.36375000       0.18644966       1.66819888       0.20273027
W       10.28625000      19.78125000       0.79125000       1.87352167       0.68216136       2.97327941
W       11.86875000      21.36375000       2.37375000      -0.41431822      -3.57230034       0.94284716
W       10.28625000      19.78125000       3.95625000      -0.36012180      -2.12401098       1.41979284
W       11.86875000      21.36375000       5.53875000       0.57625147       0.97086165      -0.72459711
W       10.28625000      19.78125000       7.12125000       0.42957321       0.55447253       3.86884176
W       11.86875000      21.36375000       8.70375000      -1.49106837      -0.02287791       0.79323359
W       10.28625000      19.78125000      10.28625000      -3.76012650      -3.49455561       4.72159831
W       11.86875000      21.36375000      11.86875000      -3.85241255       1.25337587      -1.84917614
W       10.28625000      19.78125000      13.45125000      -1.66372929      -4.32200889      -1.96365761
W       11.86875000      21.36375000      15.03375000       1.70998676      -3.02753266       1.29806201
W       10.28625000      19.78125000      16.61625000       0.68300562       4.40000549      -1.03450825
W       11.86875000      21.36375000      18.19875000       2.75430926       1.93778122      -0.62495227
W       10.28625000      19.78125000      19.78125000      -3.62533179       3.29065966      -2.97443980
W       11.86875000      21.36375000      21.36375000      -1.03207175       1.92537145       2.43284202
W       13.45125000       0.79125000       0.79125000      -1.84311840      -0.06976536      -0.56371465
W       15.03375000       2.37375000       2.37375000       2.57586003       5.46023290      -3.98924982
W       13.45125000       0.79125000       3.95625000       1.99785029      -6.23097311       0.03066543
W       15.03375000       2.37375000       5.53875000      -2.41720876       4.34227005       0.36269217
W       13.45125000       0.79125000       7.12125000      -1.60620128      -1.08852837      -1.25417509
W       15.03375000       2.37375000       8.70375000       0.41052924      -0.34477201       1.42986515
W       13.45125000       0.79125000      10.28625000       3.35785042       1.52911527      -2.67275133
W       15.03375000       2.37375000      11.86875000      -3.53998451      -1.64685442       2.29606484
W       13.45125000       0.79125000      13.45125000      -0.73042265      -1.45534397       0.30146327
W       15.03375000       2.37375000      15.03375000      -3.08592125      -2.48379454       1.11253635
W       13.45125000       0.79125000      16.61625000      -0.66089061      -0.98807892       0.69246111
W       15.03375000       2.37375000      18.19875000      -1.27505008      -1.49615069      -1.00241041
W       13.45125000       0.79125000      19.78125000       1.31374468       0.13041062      -2.60428576
W       15.03375000       2.37375000      21.36375000      -0.66068006       1.41316236       4.07833793
W       13.45125000       3.95625000       0.79125000      -2.49039197       0.73802480      -0.56408489
W       15.03375000       5.53875000       2.37375000       1.79967592       0.98005357       3.20942333
W       13.45125000       3.95625000       3.95625000       1.13243037      -1.18837578      -1.17416154
W       15.03375000       5.53875000       5.53875000       0.88412064       0.86099699       5.22762975
W       13.45125000       3.95625000       7.12125000       3.65449377      -2.55846272       0.76350853
W       15.03375000       5.53875000       8.70375000      -2.90162594      -3.60946298       1.62096951
W       13.45125000       3.95625000      10.28625000       1.20283873      -2.26413258       3.58332381
W       15.03375000       5.53875000      11.86875000      -2.13115402      -2.54570948       1.42274215
W       13.45125000       3.95625000      13.45125000       0.48165769      -0.34991591      -0.14620705
W       15.03375000       5.53875000      15.03375000       0.48789753      -0.30429173      -0.37606971
W       13.45125000       3.95625000      16.61625000      -4.13328561      -2.92554658       1.33190230
W       15.03375000       5.53875000      18.19875000      -1.53541310       1.18855007       2.69337648
W       13.45125000       3.95625000      19.78125000      -0.77381153       0.61688905       4.52682820
W       15.03375000       5.53875000      21.36375000       1.51499636       4.01538212       3.34290828
W       13.45125000       7.12125000       0.79125000       1.64236531      -0.24393430      -1.83559032
W       15.03375000       8.70375000       2.37375000      -2.42356027       1.06022274       1.02066446
W       13.45125000       7.12125000       3.95625000      -0.38068563       1.84970147      -1.31792280
W       15.03375000       8.70375000       5.53875000       2.42033614       0.08721751      -0.07919385
W       13.45125000       7.12125000       7.12125000      -0.00059580      -0.21493418       5.42454742
W       15.03375000       8.70375000       8.70375000       1.19520370     -18.67171682      -0.18660362
W       13.45125000       7.12125000      10.28625000       4.00404684      12.31390623      10.43808126
W       15.03375000       8.70375000      11.86875000       1.87420506     -12.24949288      -7.04763521
W       13.45125000       7.12125000      13.45125000       9.81097145      -7.29289564      13.17357411
W       15.03375000       8.70375000      15.03375000       1.65978385       1.59642400      -1.06271281
W       13.45125000       7.12125000      16.61625000       0.39883221      -2.10446287       3.78097713
W       15.03375000       8.70375000      18.19875000       1.72447460       1.61815740      -4.25106961
W       13.45125000       7.12125000      19.78125000       1.75996105       3.25693783       2.65151551
W       15.03375000       8.70375000      21.36375000       1.72034576      -0.00208668      -0.74521364
W       13.45125000      10.28625000       0.79125000       1.31161062       0.83445739       0.51530895
W       15.03375000      11.86875000       2.37375000      -0.67412626       3.66522793      -2.54595999
W       13.45125000      10.28625000       3.95625000      -0.04933995      -1.26482491       2.24990829
W       15.03375000      11.86875000       5.53875000       3.11852516       2.71217931       1.64682751
W       13.45125000      10.28625000       7.12125000      13.85721459     -11.34579380       6.58047684
W       15.03375000      11.86875000       8.70375000      -1.74647628      23.43928023      11.05465666
W       13.45125000      10.28625000      10.28625000      -6.23140669       5.19728604      -8.71089885
W       15.03375000      11.86875000      11.86875000      -2.19013694       2.91962999       3.30173386
W       13.45125000      10.28625000      13.45125000       2.97999386      -9.59819048     -19.24359943
W       15.03375000      11.86875000      15.03375000       2.24178954      -1.02517043       3.19656568
W       13.45125000      10.28625000      16.61625000      -4.26234825      -2.74915233      -1.97326375
W       15.03375000      11.86875000      18.19875000      -5.32906639      -2.17953526       2.72151677
W       13.45125000      10.28625000      19.78125000       2.70659886       0.21224659       3.75187508
W       15.03375000      11.86875000      21.36375000       0.52210131      -1.08525633       0.52676783
W       13.45125000      13.45125000       0.79125000      -0.29898685       1.60437377      -3.27672969
W       15.03375000      15.03375000       2.37375000       2.17877730      -1.00179252       1.86464930
W       13.45125000      13.45125000       3.95625000      -3.35954894      -0.91400599       0.17018194
W       15.03375000      15.03375000       5.53875000       1.96521429      -2.65428197       3.63511645
W       13.45125000      13.45125000       7.12125000      -4.57038723      -9.43401711      -6.26234399
W       15.03375000      15.03375000       8.70375000       0.22391545       2.52514853       5.06458479
W       13.45125000      13.45125000      10.28625000      23.57679637      13.70340688      -0.34377672
W       15.03375000      15.03375000      11.86875000       1.26999921       0.62764900      -1.81604927
W       13.45125000      13.45125000      13.45125000     -16.62203507     -14.00284427       5.68640273
W       15.03375000      15.03375000      15.03375000      -5.73433966       1.57817537      -0.46009399
W       13.45125000      13.45125000      16.61625000       1.69905619       1.89167838       0.11518981
W       15.03375000      15.03375000      18.19875000      -2.21487593      -3.04564683      -4.08580842
W       13.45125000      13.45125000      19.78125000       2.66477790      -0.45716222      -1.17782793
W       15.03375000      15.03375000      21.36375000      -0.60544297      -2.92011029       0.66407585
W       13.45125000      16.61625000       0.79125000       2.87483883       2.48190424      -3.41352458
W       15.03375000      18.19875000       2.37375000       2.97252784      -1.66607675      -4.17033686
W       13.45125000      16.61625000       3.95625000      -2.68031434      -2.10705175      -0.01514666
W       15.03375000      18.19875000       5.53875000      -2.24976098      -3.29241478      -0.57661095
W       13.45125000      16.61625000       7.12125000       4.19421210      -1.53116198       1.01209716
W       15.03375000      18.19875000       8.70375000       0.17428831       5.79472785      -4.13830294
W       13.45125000      16.61625000      10.28625000       2.38798978      -2.79348689      -1.29149651
W       15.03375000      18.19875000      11.86875000      -0.21077111       6.94583601      -1.66339183
W       13.45125000      16.61625000      13.45125000      -4.11786702       2.82832110      -1.82957899
W       15.03375000      18.19875000      15.03375000      -0.52964459      -0.05241244       0.21144067
W       13.45125000      16.61625000      16.61625000      -0.37091119       0.58372316       0.84446437
W       15.03375000      18.19875000      18.19875000       1.86159679      -0.93139078      -1.63227121
W       13.45125000      16.61625000      19.78125000      -2.31859572       1.29213667      -0.10093240
W       15.03375000      18.19875000      21.36375000       1.20601515       1.17329620       3.67530066
W       13.45125000      19.78125000       0.79125000       0.45237206       1.64020916      -2.62170927
W       15.03375000      21.36375000       2.37375000      -2.35511465      -0.67960473      -2.65250872
W       13.45125000      19.78125000       3.95625000       1.50334960      -2.90612541       0.14907859
W       15.03375000      21.36375000       5.53875000      -5.35877814      -2.40847808      -0.73911492
W       13.45125000      19.78125000       7.12125000      -0.56472018      -3.90588224       0.23690433
W       15.03375000      21.36375000       8.70375000       2.12525501       1.41319828      -1.43574583
W       13.45125000      19.78125000      10.28625000      -1.28033809      -2.58619720       1.37297105
W       15.03375000      21.36375000      11.86875000       3.14289233      -1.14661068      -3.70133296
W       13.45125000      19.78125000      13.45125000       0.43601980       1.54297469      -5.93437361
W       15.03375000      21.36375000      15.03375000       0.30162347       4.71847780       1.78905508
W       13.45125000      19.78125000      16.61625000       1.20002923       0.87664560       2.31499545
W       15.03375000      21.36375000      18.19875000      -2.05179427      -1.84288101       0.88852260
W       13.45125000      19.78125000      19.78125000      -1.49405413       0.56398492      -4.16948712
W       15.03375000      21.36375000      21.36375000       1.65238116       1.84644236       0.09522013
W       16.61625000       0.79125000       0.79125000       0.35845069       3.53310487      -2.36120343
W       18.19875000       2.37375000       2.37375000      -1.99072969      -2.38455543      -0.92593418
W       16.61625000       0.79125000       3.95625000      -2.20436017       0.08076763      -1.41864057
W       18.19875000       2.37375000       5.53875000      -3.15922154      -3.37946925       2.64147642
W       16.61625000       0.79125000       7.12125000      -0.15015946      -0.49560845       0.05792310
W       18.19875000       2.37375000       8.70375000      -0.17955376       1.64836609       1.22575435
W       16.61625000       0.79125000      10.28625000      -1.28559400      -1.79533243      -2.36910865
W       18.19875000       2.37375000      11.86875000      -2.72753223       3.05675147      -1.99810389
W       16.61625000       0.79125000      13.45125000      -4.40162635      -1.83884063      -1.71867009
W       18.19875000       2.37375000      15.03375000       0.71909392      -1.93148878       1.16578990
W       16.61625000       0.79125000      16.61625000       0.84700930       2.76175518       4.72415924
W       18.19875000       2.37375000      18.19875000       6.21076130       2.94489079      -2.52820788
W       16.61625000       0.79125000      19.78125000      -0.88117600       0.53988166       4.50862707
W       18.19875000       2.37375000      21.36375000       1.47506802       2.62341533      -0.37922428
W       16.61625000       3.95625000       0.79125000       1.28685134       1.56569701      -0.99477659
W       18.19875000       5.53875000       2.37375000       1.69461597       2.33442359      -0.34524566
W       16.61625000       3.95625000       3.95625000       2.21961316       3.59262821       0.14453736
W       18.19875000       5.53875000       5.53875000       0.00070236      -0.67498204      -1.35012729
W       16.61625000       3.95625000       7.12125000       0.34041774      -0.89780426      -0.68013429
W       18.19875000       5.53875000       8.70375000      -1.68625179      -3.34866590      -2.04324157
W       16.61625000       3.95625000      10.28625000       0.71723175      -2.57930408      -1.41261727
W       18.19875000       5.53875000      11.86875000       3.57999571       2.45586380      -1.51168358
W       16.61625000       3.95625000      13.45125000       1.31539898      -1.41765767       3.54823025
W       18.19875000       5.53875000      15.03375000      -1.27684316       0.17814672       3.01895584
W       16.61625000       3.95625000      16.61625000      -1.80481501       2.84395340      -1.78208705
W       18.19875000       5.53875000      18.19875000       0.51927929      -0.64445563      -0.19294565
W       16.61625000       3.95625000      19.78125000       0.34900530      -0.16207470      -2.21784050
W       18.19875000       5.53875000      21.36375000       1.88918973       1.57081375       2.81191167
W       16.61625000       7.12125000       0.79125000       3.01926005      -2.92992077       2.80248243
W       18.19875000       8.70375000       2.37375000       2.82913005      -1.16031824       2.26159677
W       16.61625000       7.12125000       3.95625000       3.20082141      -1.17468983      -3.00576812
W       18.19875000       8.70375000       5.53875000      -0.78380860       6.08824874       0.51506025
W       16.61625000       7.12125000       7.12125000      -2.64704066      -0.55143840      -2.16708627
W       18.19875000       8.70375000       8.70375000      -0.87045276       0.20741920      -5.58441662
W       16.61625000       7.12125000      10.28625000       0.78569272       3.08405444      -0.43027441
W       18.19875000       8.70375000      11.86875000      -0.83429512       2.38408487      -2.76133903
W       16.61625000       7.12125000      13.45125000      -2.71610633      -3.03144198      -0.34309225
W       18.19875000       8.70375000      15.03375000       0.85899960      -0.19745380       1.19854117
W       16.61625000       7.12125000      16.61625000       1.81107272       1.08258208      -1.76290796
W       18.19875000       8.70375000      18.19875000      -0.58444531       2.72124474      -2.28183199
W       16.61625000       7.12125000      19.78125000      -0.55247705      -0.90967893      -0.39260278
W       18.19875000       8.70375000      21.36375000      -2.34501406      -2.94161822       5.57213632
W       16.61625000      10.28625000       0.79125000       2.06211427      -1.55354317      -0.12854676
W       18.19875000      11.86875000       2.37375000       1.47526027      -0.74919906       1.34405390
W       16.61625000      10.28625000       3.95625000      -1.34135309      -0.78161246      -0.18480036
W       18.19875000      11.86875000       5.53875000      -0.99736435      -5.34728244       0.04611266
W       16.61625000      10.28625000       7.12125000       0.57034980       1.03813342      -2.16693976
W       18.19875000      11.86875000       8.70375000       0.75047742       0.47023866      -3.85611628
W       16.61625000      10.28625000      10.28625000      -4.80033514       1.03873101      -2.08017437
W       18.19875000      11.86875000      11.86875000       2.18486267       4.66612235      -1.27037540
W       16.61625000      10.28625000      13.45125000      -1.50291694      -0.02549817       1.47098335
W       18.19875000      11.86875000      15.03375000      -2.47610221       2.71519393       2.16091533
W       16.61625000      10.28625000      16.61625000       1.44124700      -1.17688182       1.99758691
W       18.19875000      11.86875000      18.19875000       1.86876926      -2.61817992       4.55671205
W       16.61625000      10.28625000      19.78125000      -0.65516544       0.80484490      -1.14268651
W       18.19875000      11.86875000      21.36375000       0.83909527       2.52904087      -1.76010627
W       16.61625000      13.45125000       0.79125000      -3.60891573      -0.98099210      -2.84724921
W       18.19875000      15.03375000       2.37375000      -1.65372857      -0.27573962      -0.13986652
W       16.61625000      13.45125000       3.95625000       2.81385724      -2.21231394       0.76892293
W       18.19875000      15.03375000       5.53875000      -1.10652383       2.97589635       5.51051608
W       16.61625000      13.45125000       7.12125000       0.66151463       3.64982482      -1.15587616
W       18.19875000      15.03375000       8.70375000      -3.48679057      -2.76953579      -3.44249937
W       16.61625000      13.45125000      10.28625000      -2.08140389      -0.52368945       2.50728619
W       18.19875000      15.03375000      11.86875000       1.52572979       1.01102964      -0.92376699
W       16.61625000      13.45125000      13.45125000      -1.57380694       0.07251870       0.30012074
W       18.19875000      15.03375000      15.03375000       0.55855395       0.80999451      -0.25640462
W       16.61625000      13.45125000      16.61625000      -4.19585227      -2.43127993      -1.79988281
W       18.19875000      15.03375000      18.19875000       3.69896681      -0.93147653       1.47161002
W       16.61625000      13.45125000      19.78125000       3.19211713       0.72675035      -0.85630633
W       18.19875000      15.03375000      21.36375000      -0.63923727      -2.22886999       0.66827096
W       16.61625000      16.61625000       0.79125000       2.45925168       1.24221894       1.68151212
W       18.19875000      18.19875000       2.37375000       1.56458234       4.36887601      -1.38174601
W       16.61625000      16.61625000       3.95625000       0.34341031       1.53797498       2.71910637
W       18.19875000      18.19875000       5.53875000      -5.29238858      -1.13873225      -0.45452720
W       16.61625000      16.61625000       7.12125000      -2.24419060       1.84679753       0.47740870
W       18.19875000      18.19875000       8.70375000      -0.86428112      -3.56246889      -2.88589351
W       16.61625000      16.61625000      10.28625000      -2.14808165       0.99151423      -2.65805310
W       18.19875000      18.19875000      11.86875000      -4.51146192      -3.16656482      -1.29050889
W       16.61625000      16.61625000      13.45125000       3.64782906       5.45434042      -1.04943133
W       18.19875000      18.19875000      15.03375000       2.05766106       3.05471387       2.80036931
W       16.61625000      16.61625000      16.61625000      -0.25459894      -2.83860157      -1.06452926
W       18.19875000      18.19875000      18.19875000      -4.05921980       0.52023839       1.69497792
W       16.61625000      16.61625000      19.78125000      -4.12681910      -0.11296864       0.63735082
W       18.19875000      18.19875000      21.36375000       2.72358545       3.00547113       1.74681947
W       16.61625000      19.78125000       0.79125000      -1.49711650      -0.80301734       2.62542161
W       18.19875000      21.36375000       2.37375000      -1.32090824      -0.09210268       3.40264931
W       16.61625000      19.78125000       3.95625000       0.27878850      -2.99651591      -0.64440122
W       18.19875000      21.36375000       5.53875000       1.39375561      -0.41493145       2.53172159
W       16.61625000      19.78125000       7.12125000       2.79484847      -1.41881745      -1.09800255
W       18.19875000      21.36375000       8.70375000      -0.22739388      -2.61990884       0.82366386
W       16.61625000      19.78125000      10.28625000      -0.39290464       1.71178506      -1.30825713
W       18.19875000      21.36375000      11.86875000      -1.91793778       4.00646498      -1.91697736
W       16.61625000      19.78125000      13.45125000      -1.27668845      -1.59686161      -0.66409583
W       18.19875000      21.36375000      15.03375000      -1.99702921      -0.09807234      -1.53666764
W       16.61625000      19.78125000      16.61625000      -0.90880974       0.79096236       1.52948321
W       18.19875000      21.36375000      18.19875000       1.01801868      -1.60466373       0.86583935
W       16.61625000      19.78125000      19.78125000      -0.26261546      -0.23179474      -3.75485576
W       18.19875000      21.36375000      21.36375000       1.46350694      -0.30434712       3.71975305
W       19.78125000       0.79125000       0.79125000       1.39545596      -2.43406676      -2.99145437
W       21.36375000       2.37375000       2.37375000       2.50919374      -1.90726546       1.49222694
W       19.78125000       0.79125000       3.95625000      -0.65569639       4.58647072       0.17482591
W       21.36375000       2.37375000       5.53875000       3.30446554       2.90851122      -1.00512692
W       19.78125000       0.79125000       7.12125000      -0.71080975       3.24721486       0.01543080
W       21.36375000       2.37375000       8.70375000      -1.87632610       2.64583706       5.63510175
W       19.78125000       0.79125000      10.28625000      -0.05122990       3.09221398      -0.30489111
W       21.36375000       2.37375000      11.86875000       3.01098323      -0.46101393       2.97278450
W       19.78125000       0.79125000      13.45125000       1.25977443      -0.32015288       0.60141336
W       21.36375000       2.37375000      15.03375000      -1.09158619      -2.36010254      -2.20324606
W       19.78125000       0.79125000      16.61625000      -0.01877156      -2.19598717       1.07577723
W       21.36375000       2.37375000      18.19875000       1.28023770       1.15269688      -0.95256261
W       19.78125000       0.79125000      19.78125000       0.25801289       0.08187926       3.02450511
W       21.36375000       2.37375000      21.36375000      -1.61729621      -0.69470768      -0.36392710
W       19.78125000       3.95625000       0.79125000      -0.16464369      -1.48607852      -1.22210019
W       21.36375000       5.53875000       2.37375000       2.36561308      -1.24102875       2.15221364
W       19.78125000       3.95625000       3.95625000       4.59094914       2.94143398      -3.78881109
W       21.36375000       5.53875000       5.53875000       1.84142769       1.19811932       1.34209573
W       19.78125000       3.95625000       7.12125000      -3.39227272       1.80992129      -2.22173694
W       21.36375000       5.53875000       8.70375000       2.97480635       2.48837916       5.70868822
W       19.78125000       3.95625000      10.28625000      -0.69594977      -3.18021095       2.42919815
W       21.36375000       5.53875000      11.86875000       2.04734641      -0.69458731       3.10635921
W       19.78125000       3.95625000      13.45125000       1.64095523      -2.67111245      -0.62981993
W       21.36375000       5.53875000      15.03375000      -0.83648546      -0.10347276       0.55411893
W       19.78125000       3.95625000      16.61625000      -1.38211968      -0.29609254       1.41996496
W       21.36375000       5.53875000      18.19875000      -0.02700490      -0.45613950      -0.53141739
W       19.78125000       3.95625000      19.78125000      -0.08608114      -4.04426207       0.48188096
W       21.36375000       5.53875000      21.36375000      -2.11071773       0.36321546      -3.07807610
W       19.78125000       7.12125000       0.79125000       2.14239544       0.64838439      -2.81431518
W       21.36375000       8.70375000       2.37375000       0.64905172      -1.52440507       4.05954619
W       19.78125000       7.12125000       3.95625000       1.20318580      -1.60401827       0.62456159
W       21.36375000       8.70375000       5.53875000       0.06383339       2.74823323       0.91597165
W       19.78125000       7.12125000       7.12125000       1.25920011      -2.29809200       1.86957540
W       21.36375000       8.70375000       8.70375000       4.70860920       1.53343331       0.05894244
W       19.78125000       7.12125000      10.28625000       0.50299277      -1.93156031       0.55232228
W       21.36375000       8.70375000      11.86875000      -2.24766054       0.24368165      -0.69829804
W       19.78125000       7.12125000      13.45125000      -1.66308728       1.41413295      -3.09860427
W       21.36375000       8.70375000      15.03375000       0.06151359      -2.73923065       4.14052539
W       19.78125000       7.12125000      16.61625000       4.45674470       1.99654685       4.28759753
W       21.36375000       8.70375000      18.19875000       1.44425166       1.33320096      -0.77723659
W       19.78125000       7.12125000      19.78125000      -1.80269976       0.42777450      -1.01877816
W       21.36375000       8.70375000      21.36375000      -0.80651487       1.73724255      -0.13095797
W       19.78125000      10.28625000       0.79125000      -3.25616744      -0.32660223      -1.51986131
W       21.36375000      11.86875000       2.37375000      -0.49875604      -2.25039671       2.75875004
W       19.78125000      10.28625000       3.95625000       4.29031177      -2.28191747       1.55507791
W       21.36375000      11.86875000       5.53875000       1.44434432      -2.20206836       0.36036600
W       19.78125000      10.28625000       7.12125000       3.21584644       1.98510482       3.66757867
W       21.36375000      11.86875000       8.70375000      -2.41544686      -1.49313521       0.76783251
W       19.78125000      10.28625000      10.28625000       0.90330445       0.18195038      -0.71684550
W       21.36375000      11.86875000      11.86875000      -0.77032179      -1.20228883       1.10373707
W       19.78125000      10.28625000      13.45125000      -5.89773477       3.60436084      -1.03563120
W       21.36375000      11.86875000      15.03375000      -3.00540537       1.29803308      -2.95445488
W       19.78125000      10.28625000      16.61625000       0.94882682      -0.77089069       1.39053166
W       21.36375000      11.86875000      18.19875000       1.82140387       2.92084922      -0.98385438
W       19.78125000      10.28625000      19.78125000      -0.54081034       0.06510402      -2.99417371
W       21.36375000      11.86875000      21.36375000       1.38134010       0.36779306      -2.83695173
W       19.78125000      13.45125000       0.79125000       2.72323704       3.06115734      -2.78888860
W       21.36375000      15.03375000       2.37375000       1.32880774       2.80718508       1.91079821
W       19.78125000      13.45125000       3.95625000      -2.06013269      -2.96899663      -0.17586542
W       21.36375000      15.03375000       5.53875000      -1.00695773       0.05604056      -0.15212075
W       19.78125000      13.45125000       7.12125000       1.22084262      -1.15230686      -0.28414707
W       21.36375000      15.03375000       8.70375000       6.53811680      -0.21676575       1.67051664
W       19.78125000      13.45125000      10.28625000       0.69229803       0.53735703      -1.92746096
W       21.36375000      15.03375000      11.86875000       1.20837676      -0.05426614       1.83924962
W       19.78125000      13.45125000      13.45125000       4.52778172       0.45751810       1.71418303
W       21.36375000      15.03375000      15.03375000      -2.17781752       0.30757339       3.43441718
W       19.78125000      13.45125000      16.61625000      -0.07908857      -1.33771491       0.50054953
W       21.36375000      15.03375000      18.19875000      -0.35248098      -0.47473890      -0.76298923
W       19.78125000      13.45125000      19.78125000       4.38008759      -1.85003243      -0.85161852
W       21.36375000      15.03375000      21.36375000      -1.19519292       2.75146966      -0.56021717
W       19.78125000      16.61625000       0.79125000       2.89102453       0.41032955      -0.00380526
W       21.36375000      18.19875000       2.37375000      -3.13755941       2.68763748       1.22591815
W       19.78125000      16.61625000       3.95625000       0.92943960      -0.20966954      -0.86214262
W       21.36375000      18.19875000       5.53875000      -2.71828101       2.10795880       0.63247633
W       19.78125000      16.61625000       7.12125000      -0.73673179      -1.32804066       0.29917658
W       21.36375000      18.19875000       8.70375000      -0.15186594       3.62784739       1.73354064
W       19.78125000      16.61625000      10.28625000      -1.25293620      -2.36360165      -0.46752806
W       21.36375000      18.19875000      11.86875000      -1.94034641       0.21308287       0.92882593
W       19.78125000      16.61625000      13.45125000       1.43586026       0.95724730      -0.36378477
W       21.36375000      18.19875000      15.03375000       1.36186621      -1.88410676      -0.11515906
W       19.78125000      16.61625000      16.61625000       1.82822810       0.68607392      -2.71182231
W       21.36375000      18.19875000      18.19875000      -2.45761144      -3.45900417       3.99616574
W       19.78125000      16.61625000      19.78125000      -3.31413695      -0.23551553       4.07069439
W       21.36375000      18.19875000      21.36375000       2.41618263       2.94048359      -1.01798069
W       19.78125000      19.78125000       0.79125000       1.68181312       6.71060188      -0.00747370
W       21.36375000      21.36375000       2.37375000       0.97406199      -0.61389419       0.04532843
W       19.78125000      19.78125000       3.95625000       0.88951704       3.09867389      -1.88678059
W       21.36375000      21.36375000       5.53875000      -3.03765988       0.13319357       0.52545759
W       19.78125000      19.78125000       7.12125000       3.15502432       1.64325195      -1.28210438
W       21.36375000      21.36375000       8.70375000       1.31491593       2.51282111       0.70363799
W       19.78125000      19.78125000      10.28625000      -0.66111748       1.55481267      -0.69431995
W       21.36375000      21.36375000      11.86875000      -3.99174066       2.97965127      -2.73455903
W       19.78125000      19.78125000      13.45125000      -0.65382967      -0.61440881      -0.65768039
W       21.36375000      21.36375000      15.03375000      -0.54894493      -3.06945057       1.21511211
W       19.78125000      19.78125000      16.61625000       0.12715097       0.15160728       2.40134627
W       21.36375000      21.36375000      18.19875000       2.46060276       2.98127554       4.09595847
W       19.78125000      19.78125000      19.78125000       1.04920254      -3.29235115       0.52480314
W       21.36375000      21.36375000      21.36375000       0.08897483       0.21117217      -1.24804982
