17
Lattice="5.726857820829849 0.0 0.0 2.8634289104149246 4.95960435670024 0.0 0.0 0.0 33.11393974525017" Properties=species:S:1:pos:R:3:tags:I:1 pbc="T T F"
Al       0.00000000       0.00000000      12.00000000        4
Al       2.86342891       0.00000000      12.00000000        4
Al       1.43171446       2.47980218      12.00000000        4
Al       4.29514337       2.47980218      12.00000000        4
Al       1.43171446       0.82660073      14.33797992        3
Al       4.29514337       0.82660073      14.33797992        3
Al       2.86342891       3.30640290      14.33797992        3
Al       5.72685782       3.30640290      14.33797992        3
Al      -0.01485719       1.65317257      16.68001976        2
Al       2.84457647       1.63911850      16.69308827        2
Al       1.41453128       4.11819459      16.69389297        2
Al       4.30001871       4.12776336      16.67641543        2
Al       0.00651372      -0.00898765      18.99945847        1
Al       2.87495049       0.00681442      19.01443504        1
Al       1.44438391       2.48176519      19.03317629        1
Al       4.28332374       2.48195139      19.01328473        1
Al       2.85755990       1.65686526      21.10335179        0
