8
Lattice="5.431 0.0 0.0 0.0 5.431 0.0 0.0 0.0 5.431" Properties=species:S:1:pos:R:3:momenta:R:3:forces:R:3 coordinates=unwrapped run_id=si-reference step_id=-1 evaluation_id=0 physical_time_fs=0.0 route=dft force_source=driving forces_available=T energy=-5087.0189564010625 pbc="T T T"
Si       0.05000000      -0.03000000       0.02000000       0.00104820       0.25455735      -0.23358945      -0.66597593       0.38009264      -0.22628435
Si       1.35775000       1.35775000       1.35775000      -0.75886220      -0.38741931      -0.84496967       0.14519458       0.07703617       0.11861914
Si       0.00000000       2.71550000       2.71550000       0.05124761       1.14198071      -0.41940304      -0.08809731      -0.02769181       0.01884773
Si       1.35775000       4.07325000       4.07325000      -0.52869893       0.41738831       0.30409897       0.20111222      -0.18426661      -0.14456491
Si       2.71550000       0.00000000       2.71550000       0.08982217      -0.79284022      -0.02492511       0.04564943       0.05288451       0.01885904
Si       4.07325000       1.35775000       4.07325000       0.59245919      -1.14538846      -0.38992869       0.26734153      -0.24601037       0.23516288
Si       2.71550000       2.71550000       0.00000000      -1.62000820      -1.09879903      -1.56931947       0.04565020      -0.02771804      -0.03533364
Si       4.07325000       4.07325000       1.35775000      -0.20031822      -1.07997535       0.23114098       0.04912556      -0.02432624       0.01469411
8
Lattice="5.431 0.0 0.0 0.0 5.431 0.0 0.0 0.0 5.431" Properties=species:S:1:pos:R:3:momenta:R:3:forces:R:3 coordinates=unwrapped run_id=si-reference step_id=0 evaluation_id=1 physical_time_fs=1.0 route=dft force_source=driving forces_available=T energy=-5087.018172577088 pbc="T T T"
Si       0.04988927      -0.02904440       0.01914415      -0.06642779       0.28975507      -0.25427801      -0.70790343       0.33656848      -0.19495571
Si       1.35512083       1.35640824       1.35481510      -0.74319235      -0.37922259      -0.83055994       0.17385955       0.08985723       0.17477744
Si       0.00016411       2.71948931       2.71403638       0.04281211       1.13578738      -0.41651669      -0.08365805      -0.09841052       0.03992126
Si       1.35593543       4.07467816       4.07428875      -0.50847347       0.39920949       0.28851352       0.21069858      -0.18587252      -0.17277069
Si       2.71582199      -0.00276386       2.71541606       0.09363965      -0.78655387      -0.02429558       0.03207837       0.07511196      -0.00604106
Si       4.07536804       1.35370176       4.07192662       0.61767072      -1.16689639      -0.36794121       0.24599083      -0.19191281       0.21252432
Si       2.70984188       2.71165220      -0.00549475      -1.61182268      -1.10094822      -1.57071134       0.12101515      -0.01604163       0.00699366
Si       4.07255783       4.06946862       1.35856094      -0.19751658      -1.08162686       0.22889377       0.00791874      -0.00930020      -0.06044947
8
Lattice="5.431 0.0 0.0 0.0 5.431 0.0 0.0 0.0 5.431" Properties=species:S:1:pos:R:3:momenta:R:3:forces:R:3 coordinates=unwrapped run_id=si-reference step_id=1 evaluation_id=2 physical_time_fs=2.0 route=dft force_source=driving forces_available=T energy=-5087.015973897097 pbc="T T T"
Si       0.04953534      -0.02797317       0.01822133      -0.13777050       0.32056673      -0.27185938      -0.74470620       0.29078819      -0.16301875
Si       1.35255139       1.35509735       1.35194025      -0.72478016      -0.36976957      -0.81070462       0.20103123       0.10261582       0.22949694
Si       0.00029947       2.72344481       2.71258648       0.03488532       1.12265393      -0.41155155      -0.07773937      -0.16899991       0.06117401
Si       1.35419324       4.07604246       4.07526815      -0.48739810       0.38096011       0.27023158       0.21841729      -0.18570334      -0.19946800
Si       2.71615501      -0.00550193       2.71533005       0.09615879      -0.77813231      -0.02608539       0.01921386       0.09635955      -0.03040124
Si       4.07757059       1.34958759       4.07067626       0.64066114      -1.18301495      -0.34825637       0.22211736      -0.13627748       0.18827907
Si       2.70422534       2.70779889      -0.01098709      -1.59627732      -1.10201312      -1.56798204       0.19550413      -0.00564074       0.04857766
Si       4.07186838       4.06568405       1.35935111      -0.19878957      -1.08174681       0.21931228      -0.03383803       0.00685790      -0.13463943
8
Lattice="5.431 0.0 0.0 0.0 5.431 0.0 0.0 0.0 5.431" Properties=species:S:1:pos:R:3:momenta:R:3:forces:R:3 coordinates=unwrapped run_id=si-reference step_id=2 evaluation_id=3 physical_time_fs=3.0 route=dft force_source=driving forces_available=T energy=-5087.012426756872 pbc="T T T"
Si       0.04892557      -0.02680204       0.01724250      -0.21245357       0.34678503      -0.28627987      -0.77591683       0.24304280      -0.13059688
Si       1.35005101       1.35382171       1.34914425      -0.70378000      -0.35907784      -0.78556845       0.22655329       0.11507873       0.28230098
Si       0.00040813       2.72734224       2.71115759       0.02760290       1.10262012      -0.40450094      -0.07053822      -0.23890872       0.08238355
Si       1.35252609       4.07734297       4.07617901      -0.46565688       0.36281289       0.24941631       0.22425601      -0.18379224      -0.22435191
Si       2.71649462      -0.00820688       2.71523360       0.09745452      -0.76767412      -0.03023499       0.00716849       0.11657974      -0.05408882
Si       4.07984945       1.34542660       4.06949058       0.66118206      -1.19360890      -0.33102929       0.19570930      -0.07942601       0.16248165
Si       2.69867596       2.70394365      -0.01646274      -1.57348417      -1.10211857      -1.56121847       0.26858748       0.00349362       0.08913553
Si       4.07116730       4.06190183       1.36009502      -0.20417523      -1.08023461       0.20252020      -0.07581952       0.02393209      -0.20726435
8
Lattice="5.431 0.0 0.0 0.0 5.431 0.0 0.0 0.0 5.431" Properties=species:S:1:pos:R:3:momenta:R:3:forces:R:3 coordinates=unwrapped run_id=si-reference step_id=3 evaluation_id=4 physical_time_fs=4.0 route=dft force_source=driving forces_available=T energy=-5087.007633063054 pbc="T T T"
Si       0.04804923      -0.02554742       0.01621881      -0.28991010       0.36823229      -0.29749645      -0.80117637       0.19364522      -0.09778420
Si       1.34762846       1.35258561       1.34644522      -0.68036328      -0.34718676      -0.75535887       0.25023469       0.12703565       0.33279668
Si       0.00049255       2.73115761       2.70975700       0.02108667       1.07578085      -0.39538139      -0.06213868      -0.30756592       0.10329973
Si       1.35093598       4.07858033       4.07701281      -0.44343647       0.34493521       0.22625680       0.22817385      -0.18021558      -0.24719925
Si       2.71683670      -0.01087179       2.71511856       0.09760892      -0.75528430      -0.03667450      -0.00402481       0.13568947      -0.07702614
Si       4.08219554       1.34123832       4.06836072       0.67898951      -1.19857724      -0.31640579       0.16686846      -0.02173431       0.13526755
Si       2.69321886       2.70008960      -0.02190777      -1.54360640      -1.10138552      -1.55053253       0.33975408       0.01143215       0.12844101
Si       4.07044018       4.05812783       1.36076773      -0.21367923      -1.07701053       0.17869723      -0.11769148       0.04171332      -0.27779538
8
Lattice="5.431 0.0 0.0 0.0 5.431 0.0 0.0 0.0 5.431" Properties=species:S:1:pos:R:3:momenta:R:3:forces:R:3 coordinates=unwrapped run_id=si-reference step_id=4 evaluation_id=5 physical_time_fs=5.0 route=dft force_source=driving forces_available=T energy=-5087.00172710383 pbc="T T T"
Si       0.04689765      -0.02422627       0.01516152      -0.36955454       0.38475787      -0.30547340      -0.82046505       0.14283225      -0.06463445
Si       1.34529188       1.35139315       1.34386053      -0.65472144      -0.33415693      -0.72030503       0.27185921       0.13826494       0.38093493
Si       0.00055563       2.73486731       2.70839190       0.01545627       1.04228115      -0.38423185      -0.05250193      -0.37452183       0.12371609
Si       1.34942426       4.07975578       4.07776167      -0.42093085       0.32748356       0.20095534       0.23006336      -0.17511759      -0.26796399
Si       2.71717739      -0.01349008       2.71497706       0.09670107      -0.74107417      -0.04533512      -0.01445989       0.15364322      -0.09931298
Si       4.08459897       1.33704258       4.06727733       0.69385988      -1.19785623      -0.30451728       0.13590724       0.03641479       0.10679463
Si       2.68787847       2.69623948      -0.02730868      -1.50684486      -1.09991873      -1.53605112       0.40874810       0.01843301       0.16641518
Si       4.06967262       4.05436817       1.36134500      -0.22727594      -1.07201253       0.14806296      -0.15915130       0.06005095      -0.34594941
8
Lattice="5.431 0.0 0.0 0.0 5.431 0.0 0.0 0.0 5.431" Properties=species:S:1:pos:R:3:momenta:R:3:forces:R:3 coordinates=unwrapped run_id=si-reference step_id=5 evaluation_id=6 physical_time_fs=6.0 route=dft force_source=driving forces_available=T energy=-5086.9948692903245 pbc="T T T"
Si       0.04546421      -0.02285605       0.01408203      -0.45076837       0.39624676      -0.31018536      -0.83313056       0.09109316      -0.03130575
Si       1.34304870       1.35024819       1.34140670      -0.62705715      -0.32007316      -0.68067978       0.29141374       0.14849485       0.42587525
Si       0.00060067       2.73844834       2.70706931       0.01080190       1.00232439      -0.37111591      -0.04226585      -0.43903827       0.14333773
Si       1.34799158       4.08087107       4.07841848      -0.39832756       0.31060363       0.17373822       0.23016260      -0.16857491      -0.28620417
Si       2.71751312      -0.01605558       2.71480144       0.09481836      -0.72515589      -0.05613366      -0.02387398       0.17046904      -0.12055621
Si       4.08704908       1.33285935       4.06623063       0.70557514      -1.19141682      -0.29548460       0.10262739       0.09469811       0.07711973
Si       2.68267851       2.69239570      -0.03265241      -1.46345061      -1.09781516      -1.51792765       0.47480283       0.02439797       0.20259703
Si       4.06885039       4.05062913       1.36180343      -0.24490215      -1.06520979       0.11089324      -0.19973616       0.07845979      -0.41086360
