17
Lattice="5.726857820829849 0.0 0.0 2.8634289104149246 4.95960435670024 0.0 0.0 0.0 33.11393974525017" Properties=species:S:1:pos:R:3:move_mask:L:1:tags:I:1:momenta:R:3:forces:R:3 coordinates=unwrapped run_id=al-surrogate step_id=-1 evaluation_id=0 physical_time_fs=0.0 route=ml force_source=driving forces_available=T energy=-59.84954108931103 pbc="T T F"
Al       0.00000000       0.00000000      12.00000000  F        4       0.00000000       0.00000000       0.00000000       0.00000000       0.00000000       0.00000000
Al       2.86342891       0.00000000      12.00000000  F        4       0.00000000       0.00000000       0.00000000       0.00000000       0.00000000       0.00000000
Al       1.43171446       2.47980218      12.00000000  F        4       0.00000000       0.00000000       0.00000000       0.00000000       0.00000000       0.00000000
Al       4.29514337       2.47980218      12.00000000  F        4       0.00000000       0.00000000       0.00000000       0.00000000       0.00000000       0.00000000
Al       1.43171446       0.82660073      14.33797992  F        3       0.00000000       0.00000000       0.00000000       0.00000000       0.00000000       0.00000000
Al       4.29514337       0.82660073      14.33797992  F        3       0.00000000       0.00000000       0.00000000       0.00000000       0.00000000       0.00000000
Al       2.86342891       3.30640290      14.33797992  F        3       0.00000000       0.00000000       0.00000000       0.00000000       0.00000000       0.00000000
Al       5.72685782       3.30640290      14.33797992  F        3       0.00000000       0.00000000       0.00000000       0.00000000       0.00000000       0.00000000
Al      -0.01485719       1.65317257      16.68001976  T        2       0.13091545      -0.15612108      -2.10194867       0.01328066      -0.03115266      -0.03506263
Al       2.84457647       1.63911850      16.69308827  T        2      -0.44990581      -0.04050704       0.09463346       0.02709444       0.03150693      -0.05319485
Al       1.41453128       4.11819459      16.69389297  T        2      -1.27793957      -0.39901023      -0.81724007       0.05242986       0.02455212      -0.09443046
Al       4.30001871       4.12776336      16.67641543  T        2      -0.67552510       0.88604186      -0.67443723      -0.04956016       0.00260032      -0.04232208
Al       0.00651372      -0.00898765      18.99945847  T        1      -0.02716149       0.73862518      -0.48741171       0.00469371       0.04558354       0.12970957
Al       2.87495049       0.00681442      19.01443504  T        1      -0.09329129       0.09225750       0.05326929      -0.02945516      -0.22806146      -0.00812268
Al       1.44438391       2.48176519      19.03317629  T        1      -1.02314275       0.06359084       1.13486284      -0.26993688       0.09588378      -0.09206134
Al       4.28332374       2.48195139      19.01328473  T        1      -1.29214509       0.71773968       0.09968216       0.23671414       0.09092415      -0.02464291
Al       2.85755990       1.65686526      21.10335179  T        0      -0.53574357       1.67070892       0.63662446       0.03128353      -0.01924020       0.06602867
17
Lattice="5.726857820829849 0.0 0.0 2.8634289104149246 4.95960435670024 0.0 0.0 0.0 33.11393974525017" Properties=species:S:1:pos:R:3:move_mask:L:1:tags:I:1:momenta:R:3:forces:R:3 coordinates=unwrapped run_id=al-surrogate step_id=0 evaluation_id=1 physical_time_fs=1.0 route=ml force_source=driving forces_available=T energy=-59.849360806475836 pbc="T T F"
Al       0.00000000       0.00000000      12.00000000  F        4       0.00000000       0.00000000       0.00000000       0.00000000       0.00000000       0.00000000
Al       2.86342891       0.00000000      12.00000000  F        4       0.00000000       0.00000000       0.00000000       0.00000000       0.00000000       0.00000000
Al       1.43171446       2.47980218      12.00000000  F        4       0.00000000       0.00000000       0.00000000       0.00000000       0.00000000       0.00000000
Al       4.29514337       2.47980218      12.00000000  F        4       0.00000000       0.00000000       0.00000000       0.00000000       0.00000000       0.00000000
Al       1.43171446       0.82660073      14.33797992  F        3       0.00000000       0.00000000       0.00000000       0.00000000       0.00000000       0.00000000
Al       4.29514337       0.82660073      14.33797992  F        3       0.00000000       0.00000000       0.00000000       0.00000000       0.00000000       0.00000000
Al       2.86342891       3.30640290      14.33797992  F        3       0.00000000       0.00000000       0.00000000       0.00000000       0.00000000       0.00000000
Al       5.72685782       3.30640290      14.33797992  F        3       0.00000000       0.00000000       0.00000000       0.00000000       0.00000000       0.00000000
Al      -0.01437821       1.65259864      16.67236130  T        2       0.13178031      -0.15898515      -2.10422749       0.00432876      -0.02716270      -0.01133648
Al       2.84294342       1.63897667      16.69342327  T        2      -0.44711687      -0.03722967       0.08942496       0.02969113       0.03522366      -0.05285538
Al       1.40988828       4.11674637      16.69090090  T        2      -1.27238847      -0.39643248      -0.82601124       0.06059620       0.02793350      -0.08415943
Al       4.29755058       4.13098948      16.67395256  T        2      -0.68034271       0.88581238      -0.67835023      -0.04853121      -0.00727274      -0.03735064
Al       0.00641568      -0.00629052      18.99770723  T        1      -0.02706473       0.74298196      -0.47487667      -0.00272351       0.04312483       0.12551660
Al       2.87460559       0.00710951      19.01462752  T        1      -0.09622771       0.07039855       0.05286880      -0.03033324      -0.21700881      -0.00003188
Al       1.44061087       2.48201384      19.03729133  T        1      -1.04969712       0.07321720       1.12503777      -0.27073692       0.10011877      -0.10798702
Al       4.27866198       2.48458060      19.01364322  T        1      -1.26849109       0.72647676       0.09681813       0.24490522       0.08697172      -0.03367147
Al       2.85561511       1.66294408      21.10568124  T        0      -0.53258613       1.66829405       0.64296808       0.03300527      -0.02992894       0.06313396
17
Lattice="5.726857820829849 0.0 0.0 2.8634289104149246 4.95960435670024 0.0 0.0 0.0 33.11393974525017" Properties=species:S:1:pos:R:3:move_mask:L:1:tags:I:1:momenta:R:3:forces:R:3 coordinates=unwrapped run_id=al-surrogate step_id=1 evaluation_id=2 physical_time_fs=2.0 route=ml force_source=driving forces_available=T energy=-59.848779845208895 pbc="T T F"
Al       0.00000000       0.00000000      12.00000000  F        4       0.00000000       0.00000000       0.00000000       0.00000000       0.00000000       0.00000000
Al       2.86342891       0.00000000      12.00000000  F        4       0.00000000       0.00000000       0.00000000       0.00000000       0.00000000       0.00000000
Al       1.43171446       2.47980218      12.00000000  F        4       0.00000000       0.00000000       0.00000000       0.00000000       0.00000000       0.00000000
Al       4.29514337       2.47980218      12.00000000  F        4       0.00000000       0.00000000       0.00000000       0.00000000       0.00000000       0.00000000
Al       1.43171446       0.82660073      14.33797992  F        3       0.00000000       0.00000000       0.00000000       0.00000000       0.00000000       0.00000000
Al       4.29514337       0.82660073      14.33797992  F        3       0.00000000       0.00000000       0.00000000       0.00000000       0.00000000       0.00000000
Al       2.86342891       3.30640290      14.33797992  F        3       0.00000000       0.00000000       0.00000000       0.00000000       0.00000000       0.00000000
Al       5.72685782       3.30640290      14.33797992  F        3       0.00000000       0.00000000       0.00000000       0.00000000       0.00000000       0.00000000
Al      -0.01389769       1.65201499      16.66469878  T        2       0.13177095      -0.16146182      -2.10418374      -0.00451935      -0.02326476       0.01222728
Al       2.84132099       1.63884743      16.69373938  T        2      -0.44407272      -0.03359051       0.08424974       0.03229088       0.03887345      -0.05251734
Al       1.40526696       4.11530815      16.68787874  T        2      -1.26603849      -0.39352076      -0.83377338       0.06869579       0.03135202      -0.07388561
Al       4.29506510       4.13421300      16.67147633  T        2      -0.68505734       0.88461390      -0.68177282      -0.04746353      -0.01712947      -0.03233679
Al       0.00631666      -0.00357796      18.99600087  T        1      -0.02769543       0.74709359      -0.46275205      -0.01011826       0.04059220       0.12135275
Al       2.87424985       0.00732700      19.01481998  T        1      -0.09925101       0.04964189       0.05325358      -0.03122425      -0.20561774       0.00786656
Al       1.43674101       2.48229829      19.04136774  T        1      -1.07629800       0.08324597       1.11367256      -0.27088380       0.10407709      -0.12342033
Al       4.27408779       2.48724090      19.01398967  T        1      -1.24406677       0.73481811       0.09308874       0.25239868       0.08286651      -0.04226277
Al       2.85368211       1.66901219      21.10803327  T        0      -0.52925962       1.66484346       0.64901233       0.03472583      -0.04032862       0.05993308
17
Lattice="5.726857820829849 0.0 0.0 2.8634289104149246 4.95960435670024 0.0 0.0 0.0 33.11393974525017" Properties=species:S:1:pos:R:3:move_mask:L:1:tags:I:1:momenta:R:3:forces:R:3 coordinates=unwrapped run_id=al-surrogate step_id=2 evaluation_id=3 physical_time_fs=3.0 route=ml force_source=driving forces_available=T energy=-59.847803986855155 pbc="T T F"
Al       0.00000000       0.00000000      12.00000000  F        4       0.00000000       0.00000000       0.00000000       0.00000000       0.00000000       0.00000000
Al       2.86342891       0.00000000      12.00000000  F        4       0.00000000       0.00000000       0.00000000       0.00000000       0.00000000       0.00000000
Al       1.43171446       2.47980218      12.00000000  F        4       0.00000000       0.00000000       0.00000000       0.00000000       0.00000000       0.00000000
Al       4.29514337       2.47980218      12.00000000  F        4       0.00000000       0.00000000       0.00000000       0.00000000       0.00000000       0.00000000
Al       1.43171446       0.82660073      14.33797992  F        3       0.00000000       0.00000000       0.00000000       0.00000000       0.00000000       0.00000000
Al       4.29514337       0.82660073      14.33797992  F        3       0.00000000       0.00000000       0.00000000       0.00000000       0.00000000       0.00000000
Al       2.86342891       3.30640290      14.33797992  F        3       0.00000000       0.00000000       0.00000000       0.00000000       0.00000000       0.00000000
Al       5.72685782       3.30640290      14.33797992  F        3       0.00000000       0.00000000       0.00000000       0.00000000       0.00000000       0.00000000
Al      -0.01341878       1.65142303      16.65704063  T        2       0.13089701      -0.16355950      -2.10183175      -0.01327506      -0.01944611       0.03566159
Al       2.83971011       1.63873209      16.69403670  T        2      -0.44077285      -0.02959611       0.07910808       0.03489783       0.04245644      -0.05217214
Al       1.40067020       4.11388113      16.68483016  T        2      -1.25889623      -0.39027131      -0.84052580       0.07672796       0.03481004      -0.06360045
Al       4.29256265       4.13743040      16.66898854  T        2      -0.68966504       0.88244779      -0.68470029      -0.04635384      -0.02697477      -0.02726947
Al       0.00621403      -0.00085089      18.99433791  T        1      -0.02905099       0.75095282      -0.45103506      -0.01748227       0.03798548       0.11721704
Al       2.87388294       0.00747095      19.01501526  T        1      -0.10236263       0.03001955       0.05440352      -0.03213143      -0.19391313       0.01554732
Al       1.43277429       2.48261996      19.04540003  T        1      -1.10288058       0.09364966       1.10081645      -0.27036443       0.10775250      -0.13834299
Al       4.26960387       2.48993084      19.01432100  T        1      -1.21894070       0.74274869       0.08853651       0.25919335       0.07860831      -0.05042534
Al       2.85176154       1.67506588      21.11040673  T        0      -0.52576469       1.66038663       0.65472642       0.03643433      -0.05041685       0.05641146
17
Lattice="5.726857820829849 0.0 0.0 2.8634289104149246 4.95960435670024 0.0 0.0 0.0 33.11393974525017" Properties=species:S:1:pos:R:3:move_mask:L:1:tags:I:1:momenta:R:3:forces:R:3 coordinates=unwrapped run_id=al-surrogate step_id=3 evaluation_id=4 physical_time_fs=4.0 route=ml force_source=driving forces_available=T energy=-59.846439837823475 pbc="T T F"
Al       0.00000000       0.00000000      12.00000000  F        4       0.00000000       0.00000000       0.00000000       0.00000000       0.00000000       0.00000000
Al       2.86342891       0.00000000      12.00000000  F        4       0.00000000       0.00000000       0.00000000       0.00000000       0.00000000       0.00000000
Al       1.43171446       2.47980218      12.00000000  F        4       0.00000000       0.00000000       0.00000000       0.00000000       0.00000000       0.00000000
Al       4.29514337       2.47980218      12.00000000  F        4       0.00000000       0.00000000       0.00000000       0.00000000       0.00000000       0.00000000
Al       1.43171446       0.82660073      14.33797992  F        3       0.00000000       0.00000000       0.00000000       0.00000000       0.00000000       0.00000000
Al       4.29514337       0.82660073      14.33797992  F        3       0.00000000       0.00000000       0.00000000       0.00000000       0.00000000       0.00000000
Al       2.86342891       3.30640290      14.33797992  F        3       0.00000000       0.00000000       0.00000000       0.00000000       0.00000000       0.00000000
Al       5.72685782       3.30640290      14.33797992  F        3       0.00000000       0.00000000       0.00000000       0.00000000       0.00000000       0.00000000
Al      -0.01294462       1.65082411      16.64939524  T        2       0.12916703      -0.16528538      -2.09718269      -0.02194897      -0.01569467       0.05899802
Al       2.83811170       1.63863194      16.69431537  T        2      -0.43721637      -0.02525306       0.07400110       0.03751569       0.04597257      -0.05181106
Al       1.39610087       4.11246656      16.68175883  T        2      -1.25096832      -0.38668013      -0.84626695       0.08469228       0.03830994      -0.05329524
Al       4.29004362       4.14063815      16.66649099  T        2      -0.69416151       0.87931494      -0.68712686      -0.04519879      -0.03681323      -0.02213801
Al       0.00610514       0.00188976      18.99271686  T        1      -0.03112799       0.75455234      -0.43972300      -0.02480747       0.03530449       0.11310809
Al       2.87350454       0.00754557      19.01521609  T        1      -0.10556429       0.01156111       0.05629608      -0.03305774      -0.18191925       0.02298711
Al       1.42871089       2.48298016      19.04938284  T        1      -1.12937882       0.10440022       1.08652048      -0.26916649       0.11113971      -0.15273733
Al       4.26521263       2.49264889      19.01463431  T        1      -1.19318158       0.75025354       0.08320316       0.26528836       0.07419801      -0.05816702
Al       2.84985400       1.68110155      21.11280037  T        0      -0.52210310       1.65495517       0.66007815       0.03811943      -0.06017330       0.05255525
17
Lattice="5.726857820829849 0.0 0.0 2.8634289104149246 4.95960435670024 0.0 0.0 0.0 33.11393974525017" Properties=species:S:1:pos:R:3:move_mask:L:1:tags:I:1:momenta:R:3:forces:R:3 coordinates=unwrapped run_id=al-surrogate step_id=4 evaluation_id=5 physical_time_fs=5.0 route=ml force_source=driving forces_available=T energy=-59.84469475825517 pbc="T T F"
Al       0.00000000       0.00000000      12.00000000  F        4       0.00000000       0.00000000       0.00000000       0.00000000       0.00000000       0.00000000
Al       2.86342891       0.00000000      12.00000000  F        4       0.00000000       0.00000000       0.00000000       0.00000000       0.00000000       0.00000000
Al       1.43171446       2.47980218      12.00000000  F        4       0.00000000       0.00000000       0.00000000       0.00000000       0.00000000       0.00000000
Al       4.29514337       2.47980218      12.00000000  F        4       0.00000000       0.00000000       0.00000000       0.00000000       0.00000000       0.00000000
Al       1.43171446       0.82660073      14.33797992  F        3       0.00000000       0.00000000       0.00000000       0.00000000       0.00000000       0.00000000
Al       4.29514337       0.82660073      14.33797992  F        3       0.00000000       0.00000000       0.00000000       0.00000000       0.00000000       0.00000000
Al       2.86342891       3.30640290      14.33797992  F        3       0.00000000       0.00000000       0.00000000       0.00000000       0.00000000       0.00000000
Al       5.72685782       3.30640290      14.33797992  F        3       0.00000000       0.00000000       0.00000000       0.00000000       0.00000000       0.00000000
Al      -0.01247831       1.65021958      16.64177094  T        2       0.12658860      -0.16664552      -2.09024470      -0.03055058      -0.01199910       0.08226637
Al       2.83652671       1.63854822      16.69457551  T        2      -0.43340205      -0.02056793       0.06893080       0.04014763       0.04942139      -0.05142543
Al       1.39156184       4.11106569      16.67866845  T        2      -1.24226145      -0.38274300      -0.85099445       0.09258836       0.04185401      -0.04296144
Al       4.28750842       4.14383273      16.66398553  T        2      -0.69854212       0.87521583      -0.68904574      -0.04399490      -0.04664885      -0.01693221
Al       0.00598738       0.00464304      18.99113626  T        1      -0.03392222       0.75788487      -0.42881330      -0.03208592       0.03254905       0.10902430
Al       2.87311432       0.00755513      19.01542515  T        1      -0.10885802      -0.00570616       0.05890655      -0.03400589      -0.16965981       0.03016474
Al       1.42455123       2.48338010      19.05331104  T        1      -1.15572550       0.11546912       1.07083739      -0.26727868       0.11423446      -0.16658640
Al       4.26091625       2.49539347      19.01492681  T        1      -1.16685815       0.75731782       0.07712969       0.27068336       0.06963775      -0.06549490
Al       2.84796008       1.68711569      21.11521279  T        0      -0.51827770       1.64858255       0.66503404       0.03976948      -0.06957971       0.04835165
17
Lattice="5.726857820829849 0.0 0.0 2.8634289104149246 4.95960435670024 0.0 0.0 0.0 33.11393974525017" Properties=species:S:1:pos:R:3:move_mask:L:1:tags:I:1:momenta:R:3:forces:R:3 coordinates=unwrapped run_id=al-surrogate step_id=5 evaluation_id=6 physical_time_fs=6.0 route=ml force_source=driving forces_available=T energy=-59.84257680620548 pbc="T T F"
Al       0.00000000       0.00000000      12.00000000  F        4       0.00000000       0.00000000       0.00000000       0.00000000       0.00000000       0.00000000
Al       2.86342891       0.00000000      12.00000000  F        4       0.00000000       0.00000000       0.00000000       0.00000000       0.00000000       0.00000000
Al       1.43171446       2.47980218      12.00000000  F        4       0.00000000       0.00000000       0.00000000       0.00000000       0.00000000       0.00000000
Al       4.29514337       2.47980218      12.00000000  F        4       0.00000000       0.00000000       0.00000000       0.00000000       0.00000000       0.00000000
Al       1.43171446       0.82660073      14.33797992  F        3       0.00000000       0.00000000       0.00000000       0.00000000       0.00000000       0.00000000
Al       4.29514337       0.82660073      14.33797992  F        3       0.00000000       0.00000000       0.00000000       0.00000000       0.00000000       0.00000000
Al       2.86342891       3.30640290      14.33797992  F        3       0.00000000       0.00000000       0.00000000       0.00000000       0.00000000       0.00000000
Al       5.72685782       3.30640290      14.33797992  F        3       0.00000000       0.00000000       0.00000000       0.00000000       0.00000000       0.00000000
Al      -0.01202293       1.64961075      16.63417606  T        2       0.12316840      -0.16764488      -2.08102313      -0.03908813      -0.00834879       0.10549419
Al       2.83495608       1.63848218      16.69481726  T        2      -0.42932840      -0.01554738       0.06390000       0.04279608       0.05280206      -0.05100677
Al       1.38705591       4.10967979      16.67556270  T        2      -1.23278235      -0.37845547      -0.85470508       0.10041575       0.04544440      -0.03259085
Al       4.28495750       4.14701064      16.66147402  T        2      -0.70280190       0.87015057      -0.69044914      -0.04273860      -0.05648484      -0.01164250
Al       0.00585815       0.00740796      18.98959465  T        1      -0.03742871       0.76094306      -0.41830359      -0.03930979       0.02971897       0.10496397
Al       2.87271194       0.00750402      19.01564500  T        1      -0.11224608      -0.02175731       0.06220825      -0.03497835      -0.15715796       0.03706112
Al       1.42029599       2.48382089      19.05717966  T        1      -1.18185239       0.12682750       1.05382151      -0.26469109       0.11703347      -0.17987414
Al       4.25671668       2.49816296      19.01519589  T        1      -1.14003915       0.76392695       0.07035644       0.27537862       0.06493088      -0.07241543
Al       2.84608039       1.69310496      21.11764251  T        0      -0.51429254       1.64130395       0.66955940       0.04137258      -0.07861997       0.04378931
