17
Lattice="5.726857820829849 0.0 0.0 2.8634289104149246 4.95960435670024 0.0 0.0 0.0 33.11393974525017" Properties=species:S:1:pos:R:3:move_mask:L:1:tags:I:1:forces:R:3 run_id=al-run-relax step_id=16 evaluation_id=17 note="FIRE final frame, raw MACE surrogate forces (WP08-era store: driving == raw)" force_source="surrogate (mace-mp MPA-0 medium, cpu, float64)" fmax_all_atom_eV_A=0.05458950919183557 fmax_fixed_0_7_eV_A=0.05458950919183557 fmax_free_8_16_eV_A=0.048155644466951635 pbc="T T F"
Al       0.00000000       0.00000000      12.00000000  F        4      -0.00025213      -0.00023038      -0.03160406
Al       2.86342891       0.00000000      12.00000000  F        4      -0.00027716      -0.00022112      -0.03530566
Al       1.43171446       2.47980218      12.00000000  F        4      -0.00017724      -0.00018173      -0.03562559
Al       4.29514337       2.47980218      12.00000000  F        4      -0.00026021      -0.00013415      -0.03547850
Al       1.43171446       0.82660073      14.33797992  F        3      -0.00283491      -0.00134505       0.05413452
Al       4.29514337       0.82660073      14.33797992  F        3      -0.00299474      -0.00198099       0.05447129
Al       2.86342891       3.30640290      14.33797992  F        3      -0.00199910      -0.00222519       0.05271714
Al       5.72685782       3.30640290      14.33797992  F        3      -0.00190661      -0.00223428       0.05359223
Al      -0.00870263       1.64219465      16.66556882  T        2       0.00835317      -0.00151227      -0.00080806
Al       2.85502429       1.64842776      16.68290055  T        2       0.00743446       0.00122627      -0.00081439
Al       1.43199989       4.12933265      16.66476480  T        2       0.00435765       0.00943093       0.00406832
Al       4.28461582       4.13079356      16.66382422  T        2       0.00053567       0.00624474       0.00588618
Al       0.00417465       0.00013532      19.05026953  T        1      -0.01070792      -0.00753483       0.04074104
Al       2.86542344      -0.03548616      19.01323224  T        1      -0.00337948       0.01127109      -0.03000736
Al       1.39610984       2.49693357      19.01314996  T        1       0.02668682      -0.00733162      -0.02338573
Al       4.32562038       2.49664387      19.01116724  T        1      -0.01800971      -0.00585704      -0.02471435
Al       2.86457837       1.65372228      21.07811398  T        0      -0.00456859       0.00261563      -0.04786703
