8
Lattice="5.431 0.0 0.0 0.0 5.431 0.0 0.0 0.0 5.431" Properties=species:S:1:pos:R:3:masses:R:1:initial_magmoms:R:1:initial_charges:R:1:momenta:R:3:forces:R:3 run_id=si-adaptive step_id=7 route=ml note="adaptive NVE final frame (step 8, accepted ml), driving forces" force_source=driving pbc="T T T"
Si       0.04181696      -0.01993093       0.01180958      28.08500000       0.00000000       0.00000000      -0.56996951       0.41176763      -0.31759108      -0.84085442       0.00773805       0.01848117
Si       1.33880962       1.34807298       1.33683594      28.08500000       0.00000000       0.00000000      -0.58589601      -0.29983560      -0.62098230       0.31862724       0.16030108       0.49175591
Si       0.00063106       2.74529816       2.70452703      28.08500000       0.00000000       0.00000000       0.00415803       0.94165948      -0.35133043      -0.02640440      -0.53712359       0.17275226
Si       1.34534797       4.08290869       4.07949203      28.08500000       0.00000000       0.00000000      -0.36521582       0.28491063       0.13355806       0.22725037      -0.15872399      -0.31002850
Si       2.71817173      -0.02104278       2.71437232      28.08500000       0.00000000       0.00000000       0.09124705      -0.70074552      -0.07248432      -0.03997339       0.19682438      -0.15207325
Si       4.09209907       1.32447335       4.06427421      28.08500000       0.00000000       0.00000000       0.72128409      -1.18072323      -0.28254637       0.04632862       0.18545732       0.02951431
Si       2.67261867       2.68473483      -0.04321725      28.08500000       0.00000000       0.00000000      -1.39797233      -1.09355312      -1.49073533       0.57424954       0.03692761       0.25741177
Si       4.06709992       4.04320588       1.36245229      28.08500000       0.00000000       0.00000000      -0.27094590      -1.05397625       0.05521617      -0.25922355       0.10859940      -0.50781393
