8
Lattice="5.431 0.0 0.0 0.0 5.431 0.0 0.0 0.0 5.431" Properties=species:S:1:pos:R:3:momenta:R:3:forces:R:3 coordinates=unwrapped run_id=si-adaptive-short step_id=-1 evaluation_id=0 physical_time_fs=0.0 route=dft force_source=driving forces_available=T energy=-5087.0189564010625 pbc="T T T"
Si       0.05000000      -0.03000000       0.02000000       0.00104820       0.25455735      -0.23358945      -0.66597593       0.38009264      -0.22628435
Si       1.35775000       1.35775000       1.35775000      -0.75886220      -0.38741931      -0.84496967       0.14519458       0.07703617       0.11861914
Si       0.00000000       2.71550000       2.71550000       0.05124761       1.14198071      -0.41940304      -0.08809731      -0.02769181       0.01884773
Si       1.35775000       4.07325000       4.07325000      -0.52869893       0.41738831       0.30409897       0.20111222      -0.18426661      -0.14456491
Si       2.71550000       0.00000000       2.71550000       0.08982217      -0.79284022      -0.02492511       0.04564943       0.05288451       0.01885904
Si       4.07325000       1.35775000       4.07325000       0.59245919      -1.14538846      -0.38992869       0.26734153      -0.24601037       0.23516288
Si       2.71550000       2.71550000       0.00000000      -1.62000820      -1.09879903      -1.56931947       0.04565020      -0.02771804      -0.03533364
Si       4.07325000       4.07325000       1.35775000      -0.20031822      -1.07997535       0.23114098       0.04912556      -0.02432624       0.01469411
8
Lattice="5.431 0.0 0.0 0.0 5.431 0.0 0.0 0.0 5.431" Properties=species:S:1:pos:R:3:momenta:R:3:forces:R:3 coordinates=unwrapped run_id=si-adaptive-short step_id=0 evaluation_id=1 physical_time_fs=1.0 route=ml force_source=driving forces_available=T energy=-5087.0183693016925 pbc="T T T"
Si       0.04988927      -0.02904440       0.01914415      -0.03166019       0.27322502      -0.24470306      -0.69736420       0.34680610      -0.20399416
Si       1.35512083       1.35640824       1.35481510      -0.75173119      -0.38363579      -0.83914387       0.16716514       0.08547356       0.16222756
Si       0.00016411       2.71948931       2.71403638       0.04692085       1.14062066      -0.41847736      -0.08510363      -0.08166848       0.03459171
Si       1.35593543       4.07467816       4.07428875      -0.51882161       0.40833833       0.29699889       0.20838001      -0.18743552      -0.16590300
Si       2.71582199      -0.00276386       2.71541606       0.09206417      -0.79024288      -0.02399888       0.03398920       0.07095086      -0.00055618
Si       4.07536804       1.35370176       4.07192662       0.60558926      -1.15747088      -0.37837902       0.25051630      -0.20520981       0.21878895
Si       2.70984188       2.71165220      -0.00549475      -1.61776616      -1.10016036      -1.57105483       0.10315539      -0.01660475      -0.00341805
Si       4.07255783       4.06946862       1.35856094      -0.19790550      -1.08117009       0.23186266       0.01926204      -0.01231171      -0.04173683
8
Lattice="5.431 0.0 0.0 0.0 5.431 0.0 0.0 0.0 5.431" Properties=species:S:1:pos:R:3:momenta:R:3:forces:R:3 coordinates=unwrapped run_id=si-adaptive-short step_id=1 evaluation_id=2 physical_time_fs=2.0 route=ml force_source=driving forces_available=T energy=-5087.016766470363 pbc="T T T"
Si       0.04953896      -0.02796965       0.01821823      -0.10016015       0.30729072      -0.26474078      -0.72520448       0.31180581      -0.18126163
Si       1.35254909       1.35509584       1.35193594      -0.73531107      -0.37523999      -0.82320875       0.18815753       0.09390731       0.20493896
Si       0.00029897       2.72345056       2.71258464       0.03856138       1.13259862      -0.41507952      -0.08108692      -0.13568962       0.05050795
Si       1.35419244       4.07604192       4.07527050      -0.49835308       0.38992711       0.28070274       0.21437281      -0.18933601      -0.18620999
Si       2.71615566      -0.00550335       2.71533194       0.09540282      -0.78327359      -0.02405351       0.02275039       0.08835735      -0.01956092
Si       4.07757215       1.34958302       4.07067841       0.63019671      -1.17762802      -0.35688805       0.23189002      -0.16326745       0.20120477
Si       2.70421920       2.70779870      -0.01099066      -1.60763352      -1.10179140      -1.57139057       0.16012963      -0.00634584       0.02805629
Si       4.07187227       4.06568301       1.35935754      -0.19601344      -1.08237944       0.22776298      -0.01100875       0.00056872      -0.09767543
8
Lattice="5.431 0.0 0.0 0.0 5.431 0.0 0.0 0.0 5.431" Properties=species:S:1:pos:R:3:momenta:R:3:forces:R:3 coordinates=unwrapped run_id=si-adaptive-short step_id=2 evaluation_id=3 physical_time_fs=3.0 route=dft force_source=driving forces_available=T energy=-5087.012393831094 pbc="T T T"
Si       0.04893951      -0.02678779       0.01723003      -0.17139477       0.33791846      -0.28254556      -0.77621327       0.24270033      -0.13035443
Si       1.35004199       1.35381571       1.34912719      -0.71682893      -0.36601576      -0.80307822       0.22671192       0.11525896       0.28264705
Si       0.00040598       2.72736519       2.71115026       0.03059646       1.11927024      -0.41011828      -0.07041661      -0.23944043       0.08262112
Si       1.35252311       4.07734064       4.07618829      -0.47729589       0.37132921       0.26241190       0.22427143      -0.18368425      -0.22458999
Si       2.71649715      -0.00821249       2.71524109       0.09763753      -0.77459452      -0.02597492       0.00709213       0.11663759      -0.05418317
Si       4.07985592       1.34540819       4.06949932       0.65297456      -1.19366528      -0.33712432       0.19561623      -0.07902826       0.16228727
Si       2.69865154       2.70394302      -0.01647695      -1.59190447      -1.10241473      -1.56863469       0.26908679       0.00345453       0.08943532
Si       4.07118294       4.06189760       1.36012058      -0.19709480      -1.08232357       0.21816862      -0.07614888       0.02410127      -0.20786342
8
Lattice="5.431 0.0 0.0 0.0 5.431 0.0 0.0 0.0 5.431" Properties=species:S:1:pos:R:3:momenta:R:3:forces:R:3 coordinates=unwrapped run_id=si-adaptive-short step_id=3 evaluation_id=4 physical_time_fs=4.0 route=ml force_source=driving forces_available=T energy=-5087.007742486371 pbc="T T T"
Si       0.04807339      -0.02552254       0.01619704      -0.24763983       0.36175817      -0.29534988      -0.79609946       0.20478802      -0.10691200
Si       1.34761277       1.35257517       1.34641553      -0.69455971      -0.35469422      -0.77531467       0.24535428       0.12323024       0.32269786
Si       0.00048880       2.73119757       2.70974426       0.02367965       1.09575074      -0.40200266      -0.06455147      -0.29257451       0.09851107
Si       1.35093082       4.07857626       4.07702891      -0.45526639       0.35328647       0.24035111       0.22758278      -0.18306000      -0.24229596
Si       2.71684107      -0.01088155       2.71513163       0.09833416      -0.76313757      -0.03129717      -0.00313968       0.13259470      -0.07216978
Si       4.08220689       1.34120621       4.06837599       0.67218934      -1.20142799      -0.32118333       0.17346162      -0.03541055       0.14242457
Si       2.69317631       2.70008852      -0.02193250      -1.56547290      -1.10207540      -1.55984973       0.32414222       0.01211199       0.11965802
Si       4.07046744       4.05812046       1.36081221      -0.20457467      -1.07995618       0.19775083      -0.10675053       0.03831985      -0.26191403
8
Lattice="5.431 0.0 0.0 0.0 5.431 0.0 0.0 0.0 5.431" Properties=species:S:1:pos:R:3:masses:R:1:initial_magmoms:R:1:initial_charges:R:1:momenta:R:3:forces:R:3 coordinates=unwrapped run_id=si-adaptive-short step_id=4 evaluation_id=5 physical_time_fs=5.0 route=ml force_source=driving forces_available=T energy=-5087.002301942077 pbc="T T T"
Si       0.04693378      -0.02418694       0.01512733      28.08500000       0.00000000       0.00000000      -0.32583825       0.38187387      -0.30585152      -0.81158730       0.16570301      -0.08316866
Si       1.34526785       1.35137696       1.34381474      28.08500000       0.00000000       0.00000000      -0.67045931      -0.34258969      -0.74361704       0.26262032       0.13072142       0.36096559
Si       0.00054945       2.73492943       2.70837211      28.08500000       0.00000000       0.00000000       0.01733896       1.06701204      -0.39232622      -0.05792090      -0.34473677       0.11416710
Si       1.34941672       4.07974898       4.07778630      28.08500000       0.00000000       0.00000000      -0.43291163       0.33530505       0.21655112       0.22950859      -0.18120713      -0.25843596
Si       2.71718392      -0.01350507       2.71499737      28.08500000       0.00000000       0.00000000       0.09802576      -0.75011319      -0.03838619      -0.01279103       0.14777026      -0.08955715
Si       4.08461746       1.33699207       4.06730158      28.08500000       0.00000000       0.00000000       0.68922795      -1.20490626      -0.30719340       0.14959887       0.00874258       0.12149222
Si       2.68781245       2.69623819      -0.02734695      28.08500000       0.00000000       0.00000000      -1.53363340      -1.10088568      -1.54809609       0.37780122       0.02005055       0.14907257
Si       4.06971527       4.05435650       1.36141386      28.08500000       0.00000000       0.00000000      -0.21506045      -1.07619214       0.17202381      -0.13723003       0.05295582      -0.31453597
8
Lattice="5.431 0.0 0.0 0.0 5.431 0.0 0.0 0.0 5.431" Properties=species:S:1:pos:R:3:masses:R:1:initial_magmoms:R:1:initial_charges:R:1:momenta:R:3:forces:R:3 coordinates=unwrapped run_id=si-adaptive-short step_id=5 evaluation_id=6 physical_time_fs=6.0 route=dft force_source=driving forces_available=T energy=-5086.994608333132 pbc="T T T"
Si       0.04551534      -0.02279442       0.01402905      28.08500000       0.00000000       0.00000000      -0.40555800       0.39815037      -0.31402092      -0.83389572       0.08969165      -0.03031305
Si       1.34301315       1.35022367       1.34133796      28.08500000       0.00000000       0.00000000      -0.64466292      -0.32974933      -0.70816049       0.29206449       0.14925975       0.42686101
Si       0.00059019       2.73854286       2.70703917      28.08500000       0.00000000       0.00000000       0.01164956       1.03314960      -0.38111193      -0.04197172      -0.44117665       0.14427027
Si       1.34798146       4.08085946       4.07845490      28.08500000       0.00000000       0.00000000      -0.41036770       0.31750562       0.19116574       0.23024976      -0.16798021      -0.28696830
Si       2.71752237      -0.01607781       2.71483235      28.08500000       0.00000000       0.00000000       0.09676934      -0.73559817      -0.04718311      -0.02392386       0.17064721      -0.12077578
Si       4.08707942       1.33278092       4.06626892      28.08500000       0.00000000       0.00000000       0.70392259      -1.20404750      -0.29525959       0.10190517       0.09643720       0.07615891
Si       2.68257838       2.69239474      -0.03271018      28.08500000       0.00000000       0.00000000      -1.49652314      -1.09891617      -1.53345314       0.47666996       0.02393286       0.20372729
Si       4.06891595       4.05061072       1.36190745      28.08500000       0.00000000       0.00000000      -0.22854014      -1.07099045       0.14112790      -0.20109808       0.07918844      -0.41296059
