8
Lattice="5.431 0.0 0.0 0.0 5.431 0.0 0.0 0.0 5.431" Properties=species:S:1:pos:R:3:momenta:R:3:forces:R:3 coordinates=unwrapped run_id=si-surrogate step_id=-1 evaluation_id=0 physical_time_fs=0.0 route=ml force_source=driving forces_available=T energy=-43.28102312349787 pbc="T T T"
Si       0.05000000      -0.03000000       0.02000000       0.00104820       0.25455735      -0.23358945      -0.50918292       0.29187459      -0.17453915
Si       1.35775000       1.35775000       1.35775000      -0.75886220      -0.38741931      -0.84496967       0.10452918       0.06094277       0.08753646
Si       0.00000000       2.71550000       2.71550000       0.05124761       1.14198071      -0.41940304      -0.04845149      -0.02326346       0.01559115
Si       1.35775000       4.07325000       4.07325000      -0.52869893       0.41738831       0.30409897       0.14674220      -0.13604008      -0.11079357
Si       2.71550000       0.00000000       2.71550000       0.08982217      -0.79284022      -0.02492511       0.03867479       0.02898749       0.01556404
Si       4.07325000       1.35775000       4.07325000       0.59245919      -1.14538846      -0.38992869       0.19745955      -0.18346787       0.17632566
Si       2.71550000       2.71550000       0.00000000      -1.62000820      -1.09879903      -1.56931947       0.03865603      -0.02321416      -0.01927263
Si       4.07325000       4.07325000       1.35775000      -0.20031822      -1.07997535       0.23114098       0.03157266      -0.01581929       0.00958802
8
Lattice="5.431 0.0 0.0 0.0 5.431 0.0 0.0 0.0 5.431" Properties=species:S:1:pos:R:3:momenta:R:3:forces:R:3 coordinates=unwrapped run_id=si-surrogate step_id=0 evaluation_id=1 physical_time_fs=1.0 route=ml force_source=driving forces_available=T energy=-43.28036097195774 pbc="T T T"
Si       0.04991620      -0.02905955       0.01915304      -0.05053060       0.28160363      -0.24964394      -0.54101348       0.25881499      -0.15234650
Si       1.35511384       1.35640547       1.35480977      -0.74750853      -0.38101652      -0.83422438       0.12664310       0.06942452       0.13124844
Si       0.00017092       2.71949007       2.71403582       0.04663044       1.13704561      -0.41709887      -0.04555880      -0.07722001       0.03132412
Si       1.35592609       4.07468644       4.07429455      -0.51391833       0.40386150       0.29216246       0.15420577      -0.13937933      -0.13224581
Si       2.71582080      -0.00276797       2.71541550       0.09304656      -0.78910264      -0.02435035       0.02697707       0.04711342      -0.00386138
Si       4.07535604       1.35371250       4.07191652       0.61103859      -1.16141434      -0.37340548       0.18083586      -0.14283527       0.16010350
Si       2.70984068       2.71165298      -0.00549199      -1.61338867      -1.10053246      -1.56964702       0.09612430      -0.01208010       0.01260332
Si       4.07255481       4.06947008       1.35856006      -0.19867985      -1.08094080       0.22931211       0.00178617      -0.00383821      -0.04682569
8
Lattice="5.431 0.0 0.0 0.0 5.431 0.0 0.0 0.0 5.431" Properties=species:S:1:pos:R:3:momenta:R:3:forces:R:3 coordinates=unwrapped run_id=si-surrogate step_id=1 evaluation_id=2 physical_time_fs=2.0 route=ml force_source=driving forces_available=T energy=-43.27854023691249 pbc="T T T"
Si       0.04964654      -0.02803019       0.01825375      -0.10510597       0.30534081      -0.26350673      -0.57019638       0.22449809      -0.12991397
Si       1.35252120       1.35508480       1.35191462      -0.73401648      -0.37377598      -0.81921892       0.14806865       0.07800011       0.17427797
Si       0.00032618       2.72345361       2.71258240       0.04233770       1.12681031      -0.41324203      -0.04184574      -0.13118105       0.04720495
Si       1.35415515       4.07607500       4.07529367      -0.49844774       0.39005199       0.27815796       0.16079099      -0.14179618      -0.15290006
Si       2.71615086      -0.00551975       2.71532967       0.09513895      -0.78361125      -0.02566451       0.01562623       0.06469689      -0.02289620
Si       4.07752420       1.34962593       4.07063804       0.62791673      -1.17340961      -0.35851989       0.16282017      -0.10140059       0.14298218
Si       2.70421439       2.70780180      -0.01097964      -1.60115381      -1.10121197      -1.56686911       0.15298982      -0.00175554       0.04395773
Si       4.07186024       4.06568885       1.35935403      -0.19997977      -1.08069032       0.22196776      -0.02825375       0.00893827      -0.10271260
8
Lattice="5.431 0.0 0.0 0.0 5.431 0.0 0.0 0.0 5.431" Properties=species:S:1:pos:R:3:momenta:R:3:forces:R:3 coordinates=unwrapped run_id=si-surrogate step_id=2 evaluation_id=3 physical_time_fs=3.0 route=ml force_source=driving forces_available=T energy=-43.27560045324473 pbc="T T T"
Si       0.04918099      -0.02692370       0.01730982      -0.16240729       0.32565056      -0.27515593      -0.59651642       0.18902888      -0.10727545
Si       1.34997942       1.35379092       1.34907935      -0.71845850      -0.36569361      -0.80003058       0.16870766       0.08656520       0.21641605
Si       0.00046707       2.72737208       2.71114520       0.03844834       1.11128517      -0.40782184      -0.03734552      -0.18492654       0.06315557
Si       1.35243946       4.07741485       4.07624026      -0.48237548       0.37605114       0.26217042       0.16645652      -0.14327543      -0.17262233
Si       2.71648629      -0.00824931       2.71523598       0.09613551      -0.77642105      -0.02882680       0.00466458       0.08170287      -0.04149120
Si       4.07974830       1.34550453       4.06940868       0.64295741      -1.18130210      -0.34535909       0.14342338      -0.05929842       0.12498508
Si       2.69864065       2.70395002      -0.01645220      -1.58337204      -1.10091565      -1.56104048       0.20906498       0.00778891       0.07471907
Si       4.07115596       4.06191068       1.36011272      -0.20423835      -1.07915047       0.20916882      -0.05845517       0.02241454      -0.15788679
8
Lattice="5.431 0.0 0.0 0.0 5.431 0.0 0.0 0.0 5.431" Properties=species:S:1:pos:R:3:momenta:R:3:forces:R:3 coordinates=unwrapped run_id=si-surrogate step_id=3 evaluation_id=4 physical_time_fs=4.0 route=ml force_source=driving forces_available=T energy=-43.271601937195726 pbc="T T T"
Si       0.04851050      -0.02575227       0.01632904      -0.22214267       0.34242528      -0.28457233      -0.61975638       0.15252152      -0.08445196
Si       1.34749560       1.35252678       1.34631843      -0.70091681      -0.35677609      -0.77675764       0.18845883       0.09500458       0.25744442
Si       0.00059512       2.73122702       2.70972970       0.03503700       1.09050289      -0.40083589      -0.03211284      -0.23822173       0.07908559
Si       1.35078095       4.07870547       4.07712755      -0.46579365       0.36195139       0.24429804       0.17116636      -0.14380961      -0.19127754
Si       2.71682332      -0.01095080       2.71512803       0.09607643      -0.76759031      -0.03379178      -0.00586751       0.09809983      -0.05960080
Si       4.08202167       1.34136276       4.06822226       0.65602582      -1.18503277      -0.33400803       0.12266259      -0.01666173       0.10613390
Si       2.69313874       2.70010092      -0.02189908      -1.56013033      -1.09971820      -1.55222281       0.26415967       0.01659241       0.10481754
Si       4.07043160       4.05814021       1.36081716      -0.21146617      -1.07625821       0.19099497      -0.08871071       0.03647474      -0.21215117
8
Lattice="5.431 0.0 0.0 0.0 5.431 0.0 0.0 0.0 5.431" Properties=species:S:1:pos:R:3:momenta:R:3:forces:R:3 coordinates=unwrapped run_id=si-surrogate step_id=4 evaluation_id=5 physical_time_fs=5.0 route=ml force_source=driving forces_available=T energy=-43.26662477936577 pbc="T T T"
Si       0.04762711      -0.02452844       0.01531924      -0.28399890       0.35556926      -0.29173831      -0.63969892       0.11510323      -0.06145468
Si       1.34507652       1.35129528       1.34364595      -0.68148374      -0.34704188      -0.74952036       0.20721815       0.10319369       0.29713434
Si       0.00071215       2.73500012       2.70834137       0.03217176       1.06452015      -0.39229138      -0.02622639      -0.29081321       0.09488915
Si       1.34918124       4.07994669       4.07794912      -0.44879754       0.34784547       0.22465225       0.17489148      -0.14340131      -0.20873057
Si       2.71715834      -0.01361859       2.71499960       0.09500584      -0.75718031      -0.04050966      -0.01593075       0.11385839      -0.07718207
Si       4.08433718       1.33721526       4.06707230       0.66698918      -1.18455573      -0.32454949       0.10056248       0.02637459       0.08645152
Si       2.68772757       2.69625752      -0.02730996      -1.53153469      -1.09769011      -1.54048472       0.31807644       0.02470171       0.13418186
Si       4.06967676       4.05438228       1.36144872      -0.22166229      -1.07196286       0.16754620      -0.11889248       0.05098289      -0.26528955
8
Lattice="5.431 0.0 0.0 0.0 5.431 0.0 0.0 0.0 5.431" Properties=species:S:1:pos:R:3:momenta:R:3:forces:R:3 coordinates=unwrapped run_id=si-surrogate step_id=5 evaluation_id=6 physical_time_fs=6.0 route=ml force_source=driving forces_available=T energy=-43.260767583278174 pbc="T T T"
Si       0.04652394      -0.02326507       0.01428834      -0.34764155       0.36500008      -0.29663704      -0.65612982       0.07691766      -0.03828851
Si       1.34272863       1.35009923       1.34107555      -0.66026190      -0.33652205      -0.71846193       0.22487987       0.11100060       0.33524654
Si       0.00082016       2.73867331       2.70698563       0.02991171       1.03341956      -0.38220684      -0.01979060      -0.34242625       0.11044236
Si       1.34764162       4.08113864       4.07869898      -0.43148491       0.33382521       0.20335771       0.17761123      -0.14206534      -0.22484778
Si       2.71748789      -0.01624726       2.71484466       0.09297169      -0.74525513      -0.04892653      -0.02548653       0.12895041      -0.09419388
Si       4.08668724       1.33307682       4.06595204       0.67571761      -1.17983865      -0.31706378       0.07715719       0.06967006       0.06596505
Si       2.68242569       2.69242261      -0.03267474      -1.49771106      -1.09489696      -1.52590201       0.37060693       0.03216950       0.16273697
Si       4.06888107       4.05064186       1.36198915      -0.23481197      -1.06622807       0.13894495      -0.14884826       0.06578335      -0.31706074
