8
Lattice="5.431 0.0 0.0 0.0 5.431 0.0 0.0 0.0 5.431" Properties=species:S:1:pos:R:3 pbc="T T T"
Si       0.05000000      -0.03000000       0.02000000
Si       1.35775000       1.35775000       1.35775000
Si       0.00000000       2.71550000       2.71550000
Si       1.35775000       4.07325000       4.07325000
Si       2.71550000       0.00000000       2.71550000
Si       4.07325000       1.35775000       4.07325000
Si       2.71550000       2.71550000       0.00000000
Si       4.07325000       4.07325000       1.35775000
