         288
  Built with Packmol                                             
  Li           6.322985        9.108861       13.999998
  Li          13.822021       10.969380       13.934980
  F            1.067586        4.736427       13.302486
  P            2.064778        3.482314       12.817320
  F            3.061970        2.228201       12.332154
  F            2.850453        4.515898       11.760440
  F            3.156062        3.884162       14.021560
  F            1.279104        2.448730       13.874200
  F            0.973494        3.080466       11.613080
  F            7.888539        1.144533       11.963469
  P            8.427563        2.360955       12.979514
  F            8.966586        3.577377       13.995559
  F            9.755364        2.600381       11.988456
  F            7.562130        3.485930       12.091801
  F            7.099761        2.121530       13.970571
  F            9.292995        1.235979       13.867226
  O            7.864338        6.996473        1.563753
  C            6.635774        7.222144        1.713613
  O            5.705116        6.244474        1.971094
  C            4.424406        6.850399        2.080853
  C            4.674268        8.360391        1.855376
  O            6.074032        8.473948        1.638173
  H            4.004763        6.663914        3.092410
  H            3.745368        6.439704        1.303447
  H            4.382943        8.949329        2.751146
  H            4.123536        8.725121        0.962186
  O           11.007367        3.737198       10.362999
  C           11.649941        4.817977       10.320920
  O           13.021796        4.892828       10.346787
  C           13.406010        6.259533       10.284292
  C           12.076401        7.047336       10.214629
  O           11.058652        6.056004       10.243939
  H           14.020893        6.436951        9.376235
  H           13.981450        6.531200       11.194890
  H           12.008488        7.629306        9.270795
  H           11.969052        7.723567       11.089449
  O           13.987143        9.867664       10.349524
  C           13.545064       10.547266        9.387515
  O           12.663420       10.063048        8.451302
  C           12.379029       11.093895        7.515413
  C           13.209564       12.308935        7.992105
  O           13.889696       11.857031        9.155124
  H           11.292624       11.325574        7.528571
  H           12.689763       10.775035        6.497623
  H           12.549663       13.164569        8.250066
  H           13.946796       12.614038        7.219108
  O           11.158790        2.686802        2.372226
  C           10.124447        2.540295        3.073243
  O           10.117607        1.938980        4.308812
  C            8.788711        1.944489        4.812217
  C            7.946988        2.638481        3.715301
  O            8.874817        2.963639        2.689232
  H            8.748803        2.515478        5.764321
  H            8.443901        0.901396        4.977099
  H            7.474837        3.565857        4.104106
  H            7.169925        1.951775        3.316890
  O            5.348909       12.633854       12.671236
  C            6.596324       12.528557       12.796235
  O            7.453958       13.601605       12.832154
  C            8.782492       13.119809       12.981420
  C            8.647054       11.579658       13.035609
  O            7.253987       11.327599       12.912156
  H            9.222484       13.513235       13.922561
  H            9.397311       13.434127       12.111175
  H            9.017488       11.182172       14.004582
  H            9.192327       11.103063       12.193197
  O            6.055824        5.666838        7.444076
  C            7.118589        5.789064        8.106153
  O            7.834029        4.727522        8.605686
  C            8.970822        5.227390        9.296514
  C            8.876082        6.765883        9.164570
  O            7.694143        6.999080        8.410881
  H            9.899054        4.844364        8.821328
  H            8.930655        4.916895       10.362395
  H            9.755658        7.172916        8.621622
  H            8.787271        7.245449       10.162695
  O            7.739842       11.413364        5.235985
  C            6.660511       11.849987        5.712600
  O            5.640096       12.363187        4.948639
  C            4.580403       12.759466        5.808539
  C            5.074627       12.423520        7.235504
  O            6.369811       11.867176        7.055528
  H            3.660776       12.187219        5.561673
  H            4.393736       13.849096        5.699067
  H            4.408802       11.678750        7.721423
  H            5.141751       13.340631        7.858821
  O            3.784124        0.969814       10.682335
  C            3.148517        1.707880        9.886082
  O            2.815033        1.340670        8.604597
  C            2.104691        2.408996        7.993447
  C            2.033481        3.513637        9.074207
  O            2.709900        2.971656       10.200318
  H            1.087102        2.068861        7.705445
  H            2.656824        2.764822        7.097534
  H            0.979325        3.740762        9.341212
  H            2.549040        4.436730        8.733293
  O            7.305299       13.985842       10.614606
  C            7.012873       12.765783       10.521331
  O            5.726040       12.293723       10.423967
  C            5.764995       10.875964       10.335356
  C            7.267513       10.511621       10.390498
  O            7.944481       11.755777       10.505391
  H            5.311100       10.545720        9.376689
  H            5.216334       10.429656       11.192038
  H            7.585206        9.994284        9.460145
  H            7.490437        9.878208       11.275492
  O            0.968763        7.565410        8.249282
  C            1.396994        6.992127        7.214526
  O            2.258280        7.577195        6.317787
  C            2.531421        6.650625        5.275542
  C            1.717070        5.386449        5.638913
  O            1.055900        5.710665        6.854293
  H            3.619239        6.427318        5.245380
  H            2.200026        7.070321        4.301809
  H            2.386696        4.513953        5.795360
  H            0.967488        5.156951        4.851779
  O           11.743334       13.130987        5.098844
  C           11.502987       13.042267        3.867131
  O           12.421051       12.614855        2.938294
  C           11.815476       12.638616        1.652944
  C           10.374151       13.144579        1.897749
  O           10.292963       13.361908        3.299743
  H           11.809179       11.615392        1.220398
  H           12.372101       13.331944        0.986919
  H            9.627692       12.381179        1.590924
  H           10.190611       14.097729        1.357432
  O            3.899481        5.248492        7.212004
  C            4.392105        4.118732        6.959579
  O            4.500103        3.598015        5.692516
  C            5.099207        2.312161        5.776570
  C            5.358218        2.088020        7.285218
  O            4.882520        3.267072        7.920010
  H            6.051296        2.301913        5.204253
  H            4.403200        1.545180        5.374777
  H            6.443316        1.962677        7.487637
  H            4.795226        1.205933        7.658158
  O            7.719572        9.810605        7.269524
  C            6.955174        9.623603        6.287953
  O            5.589690        9.766761        6.344674
  C            5.046644        9.479905        5.063181
  C            6.267395        9.132139        4.178776
  O            7.392106        9.253283        5.038868
  H            4.513665       10.372411        4.671402
  H            4.348980        8.618281        5.133843
  H            6.361311        9.846061        3.332834
  H            6.196618        8.091930        3.795266
  O            4.926839        2.263234       13.744054
  C            5.216257        2.605059       12.568407
  O            4.980279        3.858491       12.057056
  C            5.428884        3.893885       10.709127
  C            5.986650        2.477252       10.434545
  O            5.803804        1.766856       11.651638
  H            6.223231        4.662281       10.596413
  H            4.576699        4.122955       10.034270
  H            7.067428        2.518167       10.180833
  H            5.420900        1.978844        9.618678
  O            8.782429        7.409097        4.026103
  C            9.972275        7.154033        4.362949
  O           10.507524        7.690843        5.536182
  C            9.761061        8.537703        6.401912
  O           10.773175        6.330799        3.567979
  C           10.306754        5.743938        2.358882
  H           10.397897        8.833800        7.260586
  H            8.868637        7.998673        6.784792
  H            9.442613        9.452150        5.857899
  H           10.011921        6.537473        1.639893
  H            9.437948        5.083996        2.566785
  H           11.119977        5.137001        1.910717
  O            3.372275        4.025099        3.158496
  C            3.674560        2.833946        2.868604
  O            2.874226        1.774047        3.301283
  C            1.697545        1.968876        4.076740
  O            4.814347        2.556230        2.110388
  C            5.682889        3.575616        1.630434
  H            1.237645        0.983377        4.295459
  H            0.968709        2.588893        3.512871
  H            1.952273        2.467879        5.035740
  H            6.110096        4.144158        2.483561
  H            5.126534        4.265170        0.960691
  H            6.511184        3.109466        1.058430
  O           10.471813        1.295460        6.381646
  C           11.166803        2.044067        7.123828
  O           10.678756        2.463921        8.363451
  C            9.398685        2.081868        8.852659
  O           12.435295        2.464871        6.717644
  C           13.006921        2.083820        5.471886
  H            9.239025        2.537714        9.851292
  H            9.342348        0.976773        8.948385
  H            8.605388        2.439900        8.162685
  H           12.369782        2.441934        4.635597
  H           13.106745        0.978810        5.421297
  H           14.013558        2.540299        5.377742
  O           11.020595        8.407923        2.894451
  C           11.001576        9.655730        2.702425
  O            9.882016       10.268719        2.135007
  C            8.722756        9.540360        1.748384
  O           12.099779       10.443977        3.054205
  C           13.278425        9.900371        3.636575
  H            7.974898       10.242522        1.326210
  H            8.280766        9.032095        2.631494
  H            8.986558        8.787956        0.975165
  H           13.739390        9.163546        2.945076
  H           13.033599        9.407688        4.601404
  H           14.003107       10.718900        3.824724
  O           10.974020       10.004395       13.131328
  C           10.660885        9.450142       12.040911
  O           10.928518       10.079774       10.823098
  C           11.555593       11.354066       10.740490
  O           10.041613        8.198108       12.034231
  C            9.733738        7.488797       13.228367
  H           11.659226       11.641025        9.673968
  H           12.565181       11.311802       11.201486
  H           10.937308       12.116658       11.259863
  H            9.036607        8.084106       13.855414
  H           10.664478        7.279248       13.797034
  H            9.248485        6.526377       12.966008
  O            6.509626        6.852840       10.256344
  C            5.580034        7.565767       10.727356
  O            4.806893        8.369145        9.885949
  C            5.015883        8.430699        8.480102
  O            5.309283        7.562977       12.097691
  C            6.047881        6.774690       13.023406
  H            4.282653        9.132758        8.032841
  H            4.872519        7.425566        8.029853
  H            6.042148        8.796127        8.263737
  H            7.118810        7.068446       13.003667
  H            5.949179        5.697886       12.769786
  H            5.648228        6.941474       14.044687
  O           14.005127        3.166254       11.296114
  C           12.802953        2.782211       11.256819
  O           12.343996        1.996485       10.197043
  C           13.184465        1.591245        9.123143
  O           11.911916        3.136673       12.272468
  C           12.296898        3.933389       13.386426
  H           12.595369        0.978703        8.410183
  H           14.028298        0.981317        9.509802
  H           13.578601        2.483012        8.591185
  H           12.652624        4.926520       13.038978
  H           13.102317        3.424825       13.957595
  H           11.420911        4.077905       14.051495
  O            9.394100       12.865875        5.258483
  C            8.372292       13.466975        5.693046
  O            7.327180       13.803757        4.829651
  C            7.351050       13.496622        3.440778
  O            8.269957       13.805206        7.044438
  C            9.287677       13.499599        7.990335
  H            6.415426       13.862420        2.970296
  H            7.421186       12.397757        3.295354
  H            8.216680       13.995565        2.955687
  H           10.237122       13.998669        7.702142
  H            9.441626       12.400863        8.041811
  H            8.978034       13.866362        8.990415
  O            9.098617        4.601187        5.167481
  C            8.953940        5.575046        5.958002
  O            9.997925        5.966172        6.799577
  C           11.257840        5.305706        6.815920
  O            7.747487        6.277524        6.004151
  C            6.635051        5.945277        5.181979
  H           11.916799        5.795758        7.561693
  H           11.735166        5.372153        5.815262
  H           11.124947        4.239843        7.098492
  H            6.302090        4.907093        5.393834
  H            6.912308        6.039405        4.110606
  H            5.799774        6.642057        5.399611
  O           12.875597        7.215923        4.621930
  C           13.581103        6.467161        5.353963
  O           13.975590        5.204588        4.905162
  C           13.614279        4.698438        3.625655
  O           13.978871        6.888903        6.624808
  C           13.621018        8.158314        7.158107
  H           14.043087        3.683011        3.500816
  H           14.015562        5.359053        2.828077
  H           12.508737        4.635217        3.539915
  H           12.515768        8.244833        7.225244
  H           14.022594        8.968667        6.513409
  H           14.052002        8.261228        8.175071
  O            1.828726        9.421644       10.922659
  C            2.761046        8.914224       11.606444
  O            3.300388        9.605987       12.693507
  C            2.841925       10.894186       13.086220
  O            3.268661        7.652650       11.287243
  C            2.776752        6.881694       10.197509
  H            3.420564       11.233476       13.969743
  H            1.765669       10.848765       13.356740
  H            2.990711       11.619577       12.258426
  H            2.922715        7.433429        9.244695
  H            1.697676        6.662616       10.343010
  H            3.334328        5.924017       10.147306
