17
Lattice="5.726857820829849 0.0 0.0 2.8634289104149246 4.95960435670024 0.0 0.0 0.0 33.11393974525017" Properties=species:S:1:pos:R:3:move_mask:L:1:tags:I:1:momenta:R:3:forces:R:3 momenta_source=complete_step_reconstructed coordinates=unwrapped run_id=al-adaptive-c1 step_id=-1 evaluation_id=0 physical_time_fs=0.0 route=dft force_source=driving forces_available=T energy=-9134.775595897463 integration_phase=initial_evaluation pbc="T T F"
Al       0.00000000       0.00000000      12.00000000  F        4       0.00000000       0.00000000       0.00000000       0.00000000       0.00000000       0.00000000
Al       2.86342891       0.00000000      12.00000000  F        4       0.00000000       0.00000000       0.00000000       0.00000000       0.00000000       0.00000000
Al       1.43171446       2.47980218      12.00000000  F        4       0.00000000       0.00000000       0.00000000       0.00000000       0.00000000       0.00000000
Al       4.29514337       2.47980218      12.00000000  F        4       0.00000000       0.00000000       0.00000000       0.00000000       0.00000000       0.00000000
Al       1.43171446       0.82660073      14.33797992  F        3       0.00000000       0.00000000       0.00000000       0.00000000       0.00000000       0.00000000
Al       4.29514337       0.82660073      14.33797992  F        3       0.00000000       0.00000000       0.00000000       0.00000000       0.00000000       0.00000000
Al       2.86342891       3.30640290      14.33797992  F        3       0.00000000       0.00000000       0.00000000       0.00000000       0.00000000       0.00000000
Al       5.72685782       3.30640290      14.33797992  F        3       0.00000000       0.00000000       0.00000000       0.00000000       0.00000000       0.00000000
Al      -0.01485719       1.65317257      16.68001976  T        2       0.13146315      -0.15843929      -2.11204280       0.01115165      -0.04720109      -0.20552680
Al       2.84457647       1.63911850      16.69308827  T        2      -0.44797803      -0.03758711       0.07119571       0.03925149       0.05945291      -0.47721632
Al       1.41453128       4.11819459      16.69389297  T        2      -1.27352432      -0.39767576      -0.83166041       0.08989914       0.02717116      -0.29361280
Al       4.30001871       4.12776336      16.67641543  T        2      -0.67983003       0.88589321      -0.68555413      -0.08765277      -0.00302670      -0.22635145
Al       0.00651372      -0.00898765      18.99945847  T        1      -0.02669477       0.74196770      -0.48227731       0.00950306       0.06805711       0.10454158
Al       2.87495049       0.00681442      19.01443504  T        1      -0.09483962       0.06379204       0.04705949      -0.03152558      -0.57958557      -0.12643786
Al       1.44438391       2.48176519      19.03317629  T        1      -1.05222318       0.07649067       1.12342174      -0.59210685       0.26265363      -0.23295251
Al       4.28332374       2.48195139      19.01328473  T        1      -1.26498850       0.73033347       0.09143069       0.55293557       0.25642231      -0.16800823
Al       2.85755990       1.65686526      21.10335179  T        0      -0.53436241       1.66933390       0.64071215       0.02812196      -0.02799674       0.08322944
17
Lattice="5.726857820829849 0.0 0.0 2.8634289104149246 4.95960435670024 0.0 0.0 0.0 33.11393974525017" Properties=species:S:1:pos:R:3:move_mask:L:1:tags:I:1:momenta:R:3:forces:R:3 momenta_source=complete_step_reconstructed coordinates=unwrapped run_id=al-adaptive-c1 step_id=0 evaluation_id=1 physical_time_fs=1.0 route=ml force_source=driving forces_available=T energy=-9134.777260275812 integration_phase=complete_step pbc="T T F"
Al       0.00000000       0.00000000      12.00000000  F        4       0.00000000       0.00000000       0.00000000       0.00000000       0.00000000       0.00000000
Al       2.86342891       0.00000000      12.00000000  F        4       0.00000000       0.00000000       0.00000000       0.00000000       0.00000000       0.00000000
Al       1.43171446       2.47980218      12.00000000  F        4       0.00000000       0.00000000       0.00000000       0.00000000       0.00000000       0.00000000
Al       4.29514337       2.47980218      12.00000000  F        4       0.00000000       0.00000000       0.00000000       0.00000000       0.00000000       0.00000000
Al       1.43171446       0.82660073      14.33797992  F        3       0.00000000       0.00000000       0.00000000       0.00000000       0.00000000       0.00000000
Al       4.29514337       0.82660073      14.33797992  F        3       0.00000000       0.00000000       0.00000000       0.00000000       0.00000000       0.00000000
Al       2.86342891       3.30640290      14.33797992  F        3       0.00000000       0.00000000       0.00000000       0.00000000       0.00000000       0.00000000
Al       5.72685782       3.30640290      14.33797992  F        3       0.00000000       0.00000000       0.00000000       0.00000000       0.00000000       0.00000000
Al      -0.01437860       1.65259577      16.67233082  T        2       0.13157142      -0.16056193      -2.12097000       0.00220453      -0.04321914      -0.18176665
Al       2.84294560       1.63898166      16.69334746  T        2      -0.44592297      -0.03448586       0.04778897       0.04184314       0.06314459      -0.47658482
Al       1.40989498       4.11674684      16.69086529  T        2      -1.26870849      -0.39617467      -0.84557348       0.09805505       0.03056358      -0.28328410
Al       4.29754377       4.13098848      16.67391965  T        2      -0.68408382       0.88526056      -0.69642440      -0.08661133      -0.01288123      -0.22132969
Al       0.00641654      -0.00628650      18.99770273  T        1      -0.02659251       0.74518822      -0.47735118       0.00208210       0.06557301       0.10030105
Al       2.87460522       0.00704666      19.01460636  T        1      -0.09643091       0.03589385       0.04125021      -0.03240015      -0.56803529      -0.11828293
Al       1.44055327       2.48204366      19.03726613  T        1      -1.08131971       0.08958649       1.11120424      -0.59243481       0.26664408      -0.24876052
Al       4.27871852       2.48461019      19.01361759  T        1      -1.23745230       0.74272125       0.08274098       0.56066492       0.25222781      -0.17693127
Al       2.85561454       1.66294251      21.10568432  T        0      -0.53289716       1.66743486       0.64463631       0.02983393      -0.03866648       0.07990002
17
Lattice="5.726857820829849 0.0 0.0 2.8634289104149246 4.95960435670024 0.0 0.0 0.0 33.11393974525017" Properties=species:S:1:pos:R:3:move_mask:L:1:tags:I:1:momenta:R:3:forces:R:3 momenta_source=complete_step_reconstructed coordinates=unwrapped run_id=al-adaptive-c1 step_id=1 evaluation_id=2 physical_time_fs=2.0 route=ml force_source=driving forces_available=T energy=-9134.77902457565 integration_phase=complete_step pbc="T T F"
Al       0.00000000       0.00000000      12.00000000  F        4       0.00000000       0.00000000       0.00000000       0.00000000       0.00000000       0.00000000
Al       2.86342891       0.00000000      12.00000000  F        4       0.00000000       0.00000000       0.00000000       0.00000000       0.00000000       0.00000000
Al       1.43171446       2.47980218      12.00000000  F        4       0.00000000       0.00000000       0.00000000       0.00000000       0.00000000       0.00000000
Al       4.29514337       2.47980218      12.00000000  F        4       0.00000000       0.00000000       0.00000000       0.00000000       0.00000000       0.00000000
Al       1.43171446       0.82660073      14.33797992  F        3       0.00000000       0.00000000       0.00000000       0.00000000       0.00000000       0.00000000
Al       4.29514337       0.82660073      14.33797992  F        3       0.00000000       0.00000000       0.00000000       0.00000000       0.00000000       0.00000000
Al       2.86342891       3.30640290      14.33797992  F        3       0.00000000       0.00000000       0.00000000       0.00000000       0.00000000       0.00000000
Al       5.72685782       3.30640290      14.33797992  F        3       0.00000000       0.00000000       0.00000000       0.00000000       0.00000000       0.00000000
Al      -0.01389921       1.65200351      16.66457687  T        2       0.13135427      -0.16461690      -2.13766202      -0.00662589      -0.03934409      -0.15809990
Al       2.84132968       1.63886741      16.69343622  T        2      -0.44168582      -0.02810793       0.00103473       0.04442961       0.06671644      -0.47537878
Al       1.40529375       4.11531002      16.68773631  T        2      -1.25868071      -0.39300306      -0.87288669       0.10612078       0.03401366      -0.27284055
Al       4.29503786       4.13420899      16.67134473  T        2      -0.69253704       0.88351405      -0.71791129      -0.08550481      -0.02267954      -0.21616505
Al       0.00632010      -0.00356190      18.99598285  T        1      -0.02675149       0.75150114      -0.46771024      -0.00531920       0.06296442       0.09599822
Al       2.87424837       0.00707576      19.01473538  T        1      -0.09965682      -0.01927048       0.03002833      -0.03328275      -0.55516626      -0.11020588
Al       1.43651077       2.48241747      19.04126702  T        1      -1.13945051       0.11593659       1.08602914      -0.59116710       0.26987058      -0.26382996
Al       4.27431379       2.48735918      19.01388717  T        1      -1.18207988       0.76725970       0.06495530       0.56677349       0.24739985      -0.18520321
Al       2.85367985       1.66900593      21.10804542  T        0      -0.52988379       1.66312929       0.65226375       0.03152126      -0.04899930       0.07540237
17
Lattice="5.726857820829849 0.0 0.0 2.8634289104149246 4.95960435670024 0.0 0.0 0.0 33.11393974525017" Properties=species:S:1:pos:R:3:move_mask:L:1:tags:I:1:momenta:R:3:forces:R:3 momenta_source=complete_step_reconstructed coordinates=unwrapped run_id=al-adaptive-c1 step_id=2 evaluation_id=3 physical_time_fs=3.0 route=dft force_source=driving forces_available=T energy=-9134.779676244798 integration_phase=complete_step pbc="T T F"
Al       0.00000000       0.00000000      12.00000000  F        4       0.00000000       0.00000000       0.00000000       0.00000000       0.00000000       0.00000000
Al       2.86342891       0.00000000      12.00000000  F        4       0.00000000       0.00000000       0.00000000       0.00000000       0.00000000       0.00000000
Al       1.43171446       2.47980218      12.00000000  F        4       0.00000000       0.00000000       0.00000000       0.00000000       0.00000000       0.00000000
Al       4.29514337       2.47980218      12.00000000  F        4       0.00000000       0.00000000       0.00000000       0.00000000       0.00000000       0.00000000
Al       1.43171446       0.82660073      14.33797992  F        3       0.00000000       0.00000000       0.00000000       0.00000000       0.00000000       0.00000000
Al       4.29514337       0.82660073      14.33797992  F        3       0.00000000       0.00000000       0.00000000       0.00000000       0.00000000       0.00000000
Al       2.86342891       3.30640290      14.33797992  F        3       0.00000000       0.00000000       0.00000000       0.00000000       0.00000000       0.00000000
Al       5.72685782       3.30640290      14.33797992  F        3       0.00000000       0.00000000       0.00000000       0.00000000       0.00000000       0.00000000
Al      -0.01342220       1.65139718      16.65676640  T        2       0.12936777      -0.16785172      -2.14959429      -0.03382132      -0.02652016      -0.08485310
Al       2.83972966       1.63877701      16.69335499  T        2      -0.43660218      -0.02057897      -0.04476389       0.05907830       0.08658088      -0.45712752
Al       1.40073047       4.11388537      16.68450976  T        2      -1.24699032      -0.38942685      -0.89765469       0.13190737       0.03880155      -0.23146101
Al       4.29250138       4.13742138      16.66869251  T        2      -0.70123812       0.87968738      -0.73772299      -0.09165803      -0.05523527      -0.18722132
Al       0.00622176      -0.00081478      18.99429731  T        1      -0.02808398       0.75768647      -0.45888768      -0.02181170       0.06297506       0.08363799
Al       2.87387962       0.00690635      19.01482500  T        1      -0.10272072      -0.07325102       0.01969994      -0.02910129      -0.54393208      -0.10009048
Al       1.43225687       2.48288780      19.04517357  T        1      -1.19771453       0.14279763       1.05875896      -0.59514718       0.27704744      -0.29141862
Al       4.27011174       2.49019664      19.01409053  T        1      -1.12561460       0.79109675       0.04536867       0.58291670       0.23794662      -0.21360032
Al       2.85175643       1.67505184      21.11043348  T        0      -0.52676502       1.65763491       0.65952350       0.03198015      -0.06287170       0.07241333
17
Lattice="5.726857820829849 0.0 0.0 2.8634289104149246 4.95960435670024 0.0 0.0 0.0 33.11393974525017" Properties=species:S:1:pos:R:3:move_mask:L:1:tags:I:1:momenta:R:3:forces:R:3 momenta_source=complete_step_reconstructed coordinates=unwrapped run_id=al-adaptive-c1 step_id=3 evaluation_id=4 physical_time_fs=4.0 route=ml force_source=driving forces_available=T energy=-9134.780813133808 integration_phase=complete_step pbc="T T F"
Al       0.00000000       0.00000000      12.00000000  F        4       0.00000000       0.00000000       0.00000000       0.00000000       0.00000000       0.00000000
Al       2.86342891       0.00000000      12.00000000  F        4       0.00000000       0.00000000       0.00000000       0.00000000       0.00000000       0.00000000
Al       1.43171446       2.47980218      12.00000000  F        4       0.00000000       0.00000000       0.00000000       0.00000000       0.00000000       0.00000000
Al       4.29514337       2.47980218      12.00000000  F        4       0.00000000       0.00000000       0.00000000       0.00000000       0.00000000       0.00000000
Al       1.43171446       0.82660073      14.33797992  F        3       0.00000000       0.00000000       0.00000000       0.00000000       0.00000000       0.00000000
Al       4.29514337       0.82660073      14.33797992  F        3       0.00000000       0.00000000       0.00000000       0.00000000       0.00000000       0.00000000
Al       2.86342891       3.30640290      14.33797992  F        3       0.00000000       0.00000000       0.00000000       0.00000000       0.00000000       0.00000000
Al       5.72685782       3.30640290      14.33797992  F        3       0.00000000       0.00000000       0.00000000       0.00000000       0.00000000       0.00000000
Al      -0.01295728       1.65078137      16.64892557  T        2       0.12562381      -0.17027521      -2.15677359      -0.04240950      -0.02282454      -0.06132471
Al       2.83815076       1.63871757      16.69311030  T        2      -0.43067274      -0.01191263      -0.08955212       0.06165116       0.08987441      -0.45480601
Al       1.39621435       4.11247459      16.68120044  T        2      -1.23364795      -0.38544033      -0.91986726       0.13975669       0.04236801      -0.22080941
Al       4.28993211       4.14061403      16.66597333  T        2      -0.71017904       0.87378768      -0.75584503      -0.09038821      -0.06488863      -0.18176175
Al       0.00611562       0.00195485      18.99264167  T        1      -0.03058502       0.76373165      -0.45088771      -0.02911181       0.06011100       0.07924944
Al       2.87350046       0.00654242      19.01487882  T        1      -0.10562499      -0.12592558       0.01025102      -0.03003250      -0.52857542      -0.09229910
Al       1.42779015       2.48345719      19.04897590  T        1      -1.25595324       0.17009388       1.02947247      -0.59065186       0.27873174      -0.30488395
Al       4.26611813       2.49311919      19.01421750  T        1      -1.06821625       0.81417156       0.02404653       0.58577176       0.23187981      -0.22054001
Al       2.84984445       1.68107525      21.11284744  T        0      -0.52354557       1.65099056       0.66629969       0.03357104      -0.07241407       0.06555691
17
Lattice="5.726857820829849 0.0 0.0 2.8634289104149246 4.95960435670024 0.0 0.0 0.0 33.11393974525017" Properties=species:S:1:pos:R:3:move_mask:L:1:masses:R:1:initial_magmoms:R:1:initial_charges:R:1:momenta:R:3:forces:R:3 momenta_source=complete_step_reconstructed coordinates=unwrapped run_id=al-adaptive-c1 step_id=4 evaluation_id=5 physical_time_fs=5.0 route=ml force_source=driving forces_available=T energy=-9134.782023153452 integration_phase=complete_step pbc="T T F"
Al       0.00000000       0.00000000      12.00000000  F      26.98153850       0.00000000       0.00000000       0.00000000       0.00000000       0.00000000       0.00000000       0.00000000       0.00000000
Al       2.86342891       0.00000000      12.00000000  F      26.98153850       0.00000000       0.00000000       0.00000000       0.00000000       0.00000000       0.00000000       0.00000000       0.00000000
Al       1.43171446       2.47980218      12.00000000  F      26.98153850       0.00000000       0.00000000       0.00000000       0.00000000       0.00000000       0.00000000       0.00000000       0.00000000
Al       4.29514337       2.47980218      12.00000000  F      26.98153850       0.00000000       0.00000000       0.00000000       0.00000000       0.00000000       0.00000000       0.00000000       0.00000000
Al       1.43171446       0.82660073      14.33797992  F      26.98153850       0.00000000       0.00000000       0.00000000       0.00000000       0.00000000       0.00000000       0.00000000       0.00000000
Al       4.29514337       0.82660073      14.33797992  F      26.98153850       0.00000000       0.00000000       0.00000000       0.00000000       0.00000000       0.00000000       0.00000000       0.00000000
Al       2.86342891       3.30640290      14.33797992  F      26.98153850       0.00000000       0.00000000       0.00000000       0.00000000       0.00000000       0.00000000       0.00000000       0.00000000
Al       5.72685782       3.30640290      14.33797992  F      26.98153850       0.00000000       0.00000000       0.00000000       0.00000000       0.00000000       0.00000000       0.00000000       0.00000000
Al      -0.01250753       1.65015740      16.64106282  T      26.98153850       0.00000000       0.00000000       0.12104242      -0.17233926      -2.16164391      -0.05087215      -0.01920146      -0.03784002
Al       2.83659391       1.63869027      16.69270296  T      26.98153850       0.00000000       0.00000000      -0.42449105      -0.00293054      -0.13408584       0.06421423       0.09301009      -0.45194556
Al       1.39174822       4.11107896      16.67781216  T      26.98153850       0.00000000       0.00000000      -1.21954073      -0.38110061      -0.94102885       0.14748070       0.04599310      -0.21006181
Al       4.28733053       4.14378348      16.66318916  T      26.98153850       0.00000000       0.00000000      -0.71899038       0.86694409      -0.77342333      -0.08901951      -0.07445387      -0.17615008
Al       0.00599907       0.00474599      18.99101437  T      26.98153850       0.00000000       0.00000000      -0.03379920       0.76948912      -0.44332001      -0.03633232       0.05711683       0.07483651
Al       2.87311056       0.00598948      19.01489964  T      26.98153850       0.00000000       0.00000000      -0.10862266      -0.17703473       0.00155744      -0.03100310      -0.51205851      -0.08471109
Al       1.42311221       2.48412626      19.05266920  T      26.98153850       0.00000000       0.00000000      -1.31367097       0.19751775       0.99890528      -0.58453966       0.27964598      -0.31749481
Al       4.26233400       2.49612466      19.01426561  T      26.98153850       0.00000000       0.00000000      -1.01061689       0.83662111       0.00207586       0.58700957       0.22521574      -0.22680494
Al       2.84794447       1.68707278      21.11528484  T      26.98153850       0.00000000       0.00000000      -0.52017338       1.64343076       0.67234468       0.03509012      -0.08151112       0.05752516
17
Lattice="5.726857820829849 0.0 0.0 2.8634289104149246 4.95960435670024 0.0 0.0 0.0 33.11393974525017" Properties=species:S:1:pos:R:3:move_mask:L:1:masses:R:1:initial_magmoms:R:1:initial_charges:R:1:momenta:R:3:forces:R:3 momenta_source=complete_step_reconstructed coordinates=unwrapped run_id=al-adaptive-c1 step_id=5 evaluation_id=6 physical_time_fs=6.0 route=dft force_source=driving forces_available=T energy=-9134.782084180346 integration_phase=complete_step pbc="T T F"
Al       0.00000000       0.00000000      12.00000000  F      26.98153850       0.00000000       0.00000000       0.00000000       0.00000000       0.00000000       0.00000000       0.00000000       0.00000000
Al       2.86342891       0.00000000      12.00000000  F      26.98153850       0.00000000       0.00000000       0.00000000       0.00000000       0.00000000       0.00000000       0.00000000       0.00000000
Al       1.43171446       2.47980218      12.00000000  F      26.98153850       0.00000000       0.00000000       0.00000000       0.00000000       0.00000000       0.00000000       0.00000000       0.00000000
Al       4.29514337       2.47980218      12.00000000  F      26.98153850       0.00000000       0.00000000       0.00000000       0.00000000       0.00000000       0.00000000       0.00000000       0.00000000
Al       1.43171446       0.82660073      14.33797992  F      26.98153850       0.00000000       0.00000000       0.00000000       0.00000000       0.00000000       0.00000000       0.00000000       0.00000000
Al       4.29514337       0.82660073      14.33797992  F      26.98153850       0.00000000       0.00000000       0.00000000       0.00000000       0.00000000       0.00000000       0.00000000       0.00000000
Al       2.86342891       3.30640290      14.33797992  F      26.98153850       0.00000000       0.00000000       0.00000000       0.00000000       0.00000000       0.00000000       0.00000000       0.00000000
Al       5.72685782       3.30640290      14.33797992  F      26.98153850       0.00000000       0.00000000       0.00000000       0.00000000       0.00000000       0.00000000       0.00000000       0.00000000
Al      -0.01207596       1.64952656      16.63318654  T      26.98153850       0.00000000       0.00000000       0.11479793      -0.17363811      -2.16180218      -0.07627204      -0.00724460       0.03461759
Al       2.83506002       1.63869623      16.69213401  T      26.98153850       0.00000000       0.00000000      -0.41749189       0.00707872      -0.17718896       0.07829575       0.11078859      -0.42567753
Al       1.38733482       4.10969977      16.67434876  T      26.98153850       0.00000000       0.00000000      -1.20387264      -0.37630693      -0.95958073       0.17153733       0.05161104      -0.16767322
Al       4.28469711       4.14692629      16.66034200  T      26.98153850       0.00000000       0.00000000      -0.72795051       0.85809980      -0.78922439      -0.09341770      -0.10562478      -0.14557561
Al       0.00586952       0.00755754      18.98941383  T      26.98153850       0.00000000       0.00000000      -0.03817795       0.77503528      -0.43652100      -0.05282332       0.05580863       0.06359830
Al       2.87270957       0.00525342      19.01489016  T      26.98153850       0.00000000       0.00000000      -0.11147387      -0.22630251      -0.00634991      -0.02705058      -0.49108331      -0.07629055
Al       1.41822525       2.48489533      19.05624898  T      26.98153850       0.00000000       0.00000000      -1.37073084       0.22509470       0.96660720      -0.57725693       0.28184872      -0.34012689
Al       4.25875978       2.49921067      19.01423262  T      26.98153850       0.00000000       0.00000000      -0.95273745       0.85805917      -0.02135921       0.59147436       0.21128479      -0.25035682
Al       2.84605704       1.69304115      21.11774282  T      26.98153850       0.00000000       0.00000000      -0.51671572       1.63484125       0.67770543       0.03531128      -0.09337990       0.05162518
